Ag Pd  C  O 
 1.0000000000000000
     8.5013114179517117    0.0000000000000000    0.0000000000000005
     4.2506557089758541    7.3623516534288900    0.0000000000000005
     0.0000000000000000    0.0000000000000000   48.5890419431158733
 Ag  Pd  C   O  
  26  10   1   1
Selective dynamics
Direct
  0.6666666666666671  0.6666666666666666  0.4761904911784334   F   F   F
  0.3333332867041333  0.3333332867041335  0.4761904711944905   F   F   F
  0.3333332867041333  0.9999999533708002  0.4761904711944905   F   F   F
  0.9999999533707997  0.3333332867041335  0.4761904711944905   F   F   F
  0.9999999533707999  0.9999999533708002  0.4761904711944905   F   F   F
  0.6666667599250664  0.3333332867041335  0.4761904711944905   F   F   F
  0.6666667599250664  0.9999999533708002  0.4761904711944905   F   F   F
  0.4444444444444445  0.4444444444444445  0.5238095387974809   F   F   F
  0.6684375592463400  0.6675702267849412  0.6200907301109179   T   T   T
  0.2234992003352034  0.2218273533075027  0.5711246407493841   T   T   T
  0.2233398768228118  0.8879752556433622  0.5718432549246374   T   T   T
  0.8877190416005236  0.2221974170331280  0.5708778549845498   T   T   T
  0.8853990842648669  0.8918622398694845  0.5712911942123735   T   T   T
  0.5545533321011050  0.5565794207888207  0.5718499931730606   T   T   T
  0.1111110644819112  0.7777777311485777  0.5238095188135381   F   F   F
  0.7777777311485781  0.7777777311485777  0.5238095188135381   F   F   F
  0.3321045507117307  0.3346573254783394  0.6199612566368280   T   T   T
  0.3334956318375248  1.0006201674375679  0.6199715423081830   T   T   T
  0.9997326276167208  0.3349592525896646  0.6205335618425146   T   T   T
  0.9994157024259668  0.9987607180503399  0.6204925837808732   T   T   T
  0.2246132221879755  0.5549925330860670  0.5717125214291781   T   T   T
  0.8882542265184092  0.5555242564735341  0.5711212022382463   T   T   T
  0.4444445377028442  0.1111110644819113  0.5238095188135381   F   F   F
  0.4444445377028442  0.7777777311485780  0.5238095188135381   F   F   F
  0.6674742616262019  0.3318320526553473  0.6198612952634092   T   T   T
  0.6671178662559265  0.9990674718167391  0.6195417778363264   T   T   T
  0.3333332867041338  0.6666667599250664  0.4761904711944905   F   F   F
  0.9999999533708005  0.6666667599250664  0.4761904711944905   F   F   F
  0.5560273771452413  0.2221045463477926  0.5715999562582921   T   T   T
  0.5544169060777312  0.8891372649112551  0.5717488048569273   T   T   T
  0.1111110644819112  0.4444445377028443  0.5238095188135381   F   F   F
  0.1111110644819112  1.1111112043695111  0.5238095188135381   F   F   F
  0.7777777311485784  0.4444445377028443  0.5238095188135381   F   F   F
  0.7777777311485777  1.1111112043695111  0.5238095188135381   F   F   F
  0.3319065112272280  0.6670780996603451  0.6213592753095923   T   T   T
  0.9986070058836750  0.6668014683555320  0.6178356215968911   T   T   T
  0.3340840213918143  0.6654414710082910  0.6600208068611082   T   T   T
  0.3325530861511957  0.6669309811722990  0.6839660435238977   T   T   T
