Ag 
 1.0000000000000000
     8.5983832630900725    0.0000000000000000    0.3096632092506426
     4.2936155075093092    7.4496349315025547    0.3096632092506426
     0.0000000000000000    0.0000000000000000   39.8433329235828140
 Ag 
  36
Selective dynamics
Direct
  0.1568185254722198  0.1568184396286262  0.5886383390023008   T   T   T
  0.1568227879149680  0.4901517688979499  0.5886385863453309   T   T   T
  0.1568176707069491  0.8234861779009033  0.5886387142989082   T   T   T
  0.4901517198098453  0.1568227950642573  0.5886385812335485   T   T   T
  0.4901503873420183  0.4901504396685610  0.5886391199286427   T   T   T
  0.4901493279112510  0.8234866683416481  0.5886389951185472   T   T   T
  0.8234862112576905  0.1568176344576620  0.5886386957092435   T   T   T
  0.8234866783493142  0.4901493711255783  0.5886389855837001   T   T   T
  0.8234878342746740  0.8234878353270053  0.5886389574358047   T   T   T
  0.2745442247427979  0.2745442108110421  0.5291112271915169   T   T   T
  0.2745439002878501  0.6078787197697896  0.5291111431851362   T   T   T
  0.2745435118786534  0.9412054630167033  0.5291109044890648   T   T   T
  0.6078787870138442  0.2745438600114479  0.5291111356801700   T   T   T
  0.6078757262706108  0.6078756964590715  0.5291110819086829   T   T   T
  0.6078799439407629  0.9412069253941989  0.5291111627687216   T   T   T
  0.9412054886022599  0.2745434793258023  0.5291109077492976   T   T   T
  0.9412069337510371  0.6078799234348243  0.5291111696049791   T   T   T
  0.9412094958250293  0.9412095404094951  0.5291110590622378   T   T   T
  0.0588233949072055  0.0588233949072054  0.4705882352941176   F   F   F
  0.0588233949072055  0.3921567282405387  0.4705882352941173   F   F   F
  0.0588233949072055  0.7254900615738720  0.4705882352941176   F   F   F
  0.3921567282405388  0.0588233949072054  0.4705882352941176   F   F   F
  0.3921567282405387  0.3921567282405387  0.4705882352941176   F   F   F
  0.3921567282405388  0.7254900615738720  0.4705882352941173   F   F   F
  0.7254900615738720  0.0588233949072054  0.4705882352941176   F   F   F
  0.7254900615738721  0.3921567282405387  0.4705882352941173   F   F   F
  0.7254900615738720  0.7254900615738720  0.4705882352941176   F   F   F
  0.1764704537307346  0.1764704537307344  0.4117647058823530   F   F   F
  0.1764704537307346  0.5098037870640678  0.4117647058823530   F   F   F
  0.1764704537307346  0.8431371203974013  0.4117647058823529   F   F   F
  0.5098037870640679  0.1764704537307344  0.4117647058823530   F   F   F
  0.5098037870640678  0.5098037870640678  0.4117647058823530   F   F   F
  0.5098037870640678  0.8431371203974013  0.4117647058823530   F   F   F
  0.8431371203974012  0.1764704537307344  0.4117647058823530   F   F   F
  0.8431371203974014  0.5098037870640678  0.4117647058823530   F   F   F
  0.8431371203974007  0.8431371203974013  0.4117647058823529   F   F   F
