Ag 
 1.0000000000000000
     8.5983832630900725    0.0000000000000000    0.3096632092506426
     4.2936155075093092    7.4496349315025547    0.3096632092506426
     0.0000000000000000    0.0000000000000000   39.8433329235828140
 Ag 
  36
Selective dynamics
Direct
  0.1568297523880712  0.1568296949491512  0.5885304852555679   T   T   T
  0.1568341661315954  0.4901642163236319  0.5885313044488776   T   T   T
  0.1568297249546889  0.8234962039556228  0.5885311781338821   T   T   T
  0.4901641906666969  0.1568341577539939  0.5885312994662697   T   T   T
  0.4901615988474344  0.4901616332602400  0.5885315756240191   T   T   T
  0.4901612269776616  0.8234973164822992  0.5885310143158415   T   T   T
  0.8234962337809191  0.1568297063440331  0.5885311721892440   T   T   T
  0.8234973093500155  0.4901612464935917  0.5885310126544971   T   T   T
  0.8234993483948663  0.8234993268013674  0.5885313075099217   T   T   T
  0.2745398138075100  0.2745398136681720  0.5291514887991143   T   T   T
  0.2745392381146436  0.6078738381362709  0.5291512804334978   T   T   T
  0.2745387803272933  0.9412011877440019  0.5291512389588960   T   T   T
  0.6078738658309873  0.2745392147737832  0.5291512781528260   T   T   T
  0.6078712169665679  0.6078711948114339  0.5291513281128807   T   T   T
  0.6078753239385822  0.9412027008019004  0.5291513037254629   T   T   T
  0.9412011974522513  0.2745387751470958  0.5291512363564019   T   T   T
  0.9412026970181876  0.6078753096420930  0.5291513045556515   T   T   T
  0.9412050591960657  0.9412050688831907  0.5291511932111540   T   T   T
  0.0588233949072055  0.0588233949072054  0.4705882352941176   F   F   F
  0.0588233949072055  0.3921567282405387  0.4705882352941174   F   F   F
  0.0588233949072055  0.7254900615738720  0.4705882352941176   F   F   F
  0.3921567282405388  0.0588233949072054  0.4705882352941176   F   F   F
  0.3921567282405387  0.3921567282405387  0.4705882352941176   F   F   F
  0.3921567282405388  0.7254900615738720  0.4705882352941174   F   F   F
  0.7254900615738720  0.0588233949072054  0.4705882352941176   F   F   F
  0.7254900615738721  0.3921567282405387  0.4705882352941174   F   F   F
  0.7254900615738720  0.7254900615738720  0.4705882352941176   F   F   F
  0.1764704537307346  0.1764704537307344  0.4117647058823530   F   F   F
  0.1764704537307346  0.5098037870640678  0.4117647058823530   F   F   F
  0.1764704537307346  0.8431371203974013  0.4117647058823529   F   F   F
  0.5098037870640679  0.1764704537307344  0.4117647058823530   F   F   F
  0.5098037870640678  0.5098037870640678  0.4117647058823530   F   F   F
  0.5098037870640678  0.8431371203974013  0.4117647058823530   F   F   F
  0.8431371203974012  0.1764704537307344  0.4117647058823530   F   F   F
  0.8431371203974014  0.5098037870640678  0.4117647058823530   F   F   F
  0.8431371203974007  0.8431371203974013  0.4117647058823529   F   F   F
