Ag  H Pd  O 
 1.0000000000000000
     8.5013114179517117    0.0000000000000000    0.0000000000000005
     4.2506557089758541    7.3623516534288900    0.0000000000000005
     0.0000000000000000    0.0000000000000000   48.5890419431158733
 Ag  H   Pd  O  
  26   1  10   1
Selective dynamics
Direct
  0.6666666666666671  0.6666666666666666  0.4761904911784334   F   F   F
  0.3333332867041333  0.3333332867041335  0.4761904711944905   F   F   F
  0.3333332867041333  0.9999999533708002  0.4761904711944905   F   F   F
  0.9999999533707997  0.3333332867041335  0.4761904711944905   F   F   F
  0.9999999533707999  0.9999999533708002  0.4761904711944905   F   F   F
  0.6666667599250664  0.3333332867041335  0.4761904711944905   F   F   F
  0.6666667599250664  0.9999999533708002  0.4761904711944905   F   F   F
  0.4444444444444445  0.4444444444444445  0.5238095387974809   F   F   F
  0.6680136715853123  0.6675825519352635  0.6199752859721315   T   T   T
  0.2235114881160055  0.2216658538469913  0.5712676782724518   T   T   T
  0.2237586918879897  0.8878427142250327  0.5718272952375393   T   T   T
  0.8877536762993882  0.2221229587353953  0.5710195048960225   T   T   T
  0.8855219794117390  0.8918404618343089  0.5712496965614176   T   T   T
  0.5544095206077370  0.5566291850847587  0.5718425474507997   T   T   T
  0.1111110644819112  0.7777777311485777  0.5238095188135381   F   F   F
  0.7777777311485781  0.7777777311485777  0.5238095188135381   F   F   F
  0.3323967797892235  0.3357515863578354  0.6198481456689043   T   T   T
  0.3339594594160903  0.9992169833966897  0.6200977052822727   T   T   T
  0.9996959992912937  0.3348567296802138  0.6205289511181833   T   T   T
  1.0004173196284196  0.9980452485860108  0.6203899338511263   T   T   T
  0.2248503719543800  0.5548653302795059  0.5715394159749755   T   T   T
  0.8881298368133445  0.5554824995857269  0.5710853613015671   T   T   T
  0.4444445377028442  0.1111110644819113  0.5238095188135381   F   F   F
  0.4444445377028442  0.7777777311485780  0.5238095188135381   F   F   F
  0.6664219079280899  0.3335099312519998  0.6199546002092535   T   T   T
  0.6672738635664057  0.9992222348860790  0.6195577147812459   T   T   T
  0.4274555692193463  0.6666549723874654  0.6698487228852795   T   T   T
  0.3333332867041338  0.6666667599250664  0.4761904711944905   F   F   F
  0.9999999533708005  0.6666667599250664  0.4761904711944905   F   F   F
  0.5563776337903997  0.2215183132455925  0.5715881495238533   T   T   T
  0.5546090401737863  0.8898055947086021  0.5717300660340449   T   T   T
  0.1111110644819112  0.4444445377028443  0.5238095188135381   F   F   F
  0.1111110644819112  1.1111112043695111  0.5238095188135381   F   F   F
  0.7777777311485784  0.4444445377028443  0.5238095188135381   F   F   F
  0.7777777311485777  1.1111112043695111  0.5238095188135381   F   F   F
  0.3315570523636074  0.6674435550113547  0.6204551737781692   T   T   T
  0.9994988814531020  0.6663280034579688  0.6175221741086289   T   T   T
  0.3173604435072113  0.6658427684341440  0.6640093296874634   T   T   T
