Ag Pd  C  O 
 1.0000000000000000
     8.3348369443761747    0.0000000000000000    0.0000000000000005
     4.1674184721880891    7.2181805302308319    0.0000000000000005
     0.0000000000000000    0.0000000000000000   47.6375610737127033
 Ag  Pd  C   O  
   9  27   1   1
Selective dynamics
Direct
  0.6666666666666667  0.6666666666666667  0.4761904572003339   F   F   F
  0.4444444444444448  0.4444444444444445  0.5238095048193816   F   F   F
  0.4444444444444446  1.1111111111111112  0.5238095048193816   F   F   F
  0.9985334049532752  0.6668203564898085  0.6219423794427658   T   T   T
  0.3374985024113148  0.6627898510679724  0.6228784337412744   T   T   T
  0.2231789873756011  0.2226668537296764  0.5717371725691510   T   T   T
  0.2249514635068380  0.8861084134972116  0.5725582365447512   T   T   T
  0.8891218967376395  0.2227790301401394  0.5717402648343018   T   T   T
  0.8898642837518657  0.8880237814293861  0.5722730713090524   T   T   T
  0.3333333924137755  0.3333333924137756  0.4761904825205235   F   F   F
  0.3333333924137756  1.0000000590804423  0.4761904825205235   F   F   F
  1.0000000590804421  0.3333333924137756  0.4761904825205235   F   F   F
  1.0000000590804421  1.0000000590804423  0.4761904825205235   F   F   F
  0.6666665485057828  0.3333333924137756  0.4761904825205235   F   F   F
  0.6666665485057829  1.0000000590804423  0.4761904825205235   F   F   F
  0.3333333924137759  0.6666665485057824  0.4761904825205235   F   F   F
  1.0000000590804428  0.6666665485057824  0.4761904825205235   F   F   F
  0.5555544779655338  0.5559142665923191  0.5719055504939705   T   T   T
  0.1111111701915532  0.1111111701915532  0.5238095301395711   F   F   F
  0.1111111701915533  0.7777778368582199  0.5238095301395711   F   F   F
  0.7777778368582201  0.1111111701915532  0.5238095301395711   F   F   F
  0.7777778368582201  0.7777778368582199  0.5238095301395711   F   F   F
  0.3373317297177427  0.3287201687468034  0.6194186106554430   T   T   T
  0.3355950024342734  1.0033625922599554  0.6202185381782231   T   T   T
  1.0006276155145886  0.3332937964903319  0.6200111891812795   T   T   T
  0.9980938316494038  1.0065795658909658  0.6210767095789570   T   T   T
  0.2236270969159760  0.5554875525619124  0.5722276416993124   T   T   T
  0.8895403316334228  0.5557369567548410  0.5712632523491491   T   T   T
  0.4444443262835602  0.7777778368582199  0.5238095301395711   F   F   F
  0.6703764086098328  0.3313657692713133  0.6196509476382088   T   T   T
  0.6649619052859028  1.0025168341213049  0.6199394333668640   T   T   T
  0.5569263160980500  0.2228120349042264  0.5719701462711874   T   T   T
  0.5580074799851475  0.8870859089575143  0.5718161524555719   T   T   T
  0.1111111701915534  0.4444443262835603  0.5238095301395711   F   F   F
  0.7777778368582202  0.4444443262835603  0.5238095301395711   F   F   F
  0.6697709038078260  0.6674480955567994  0.6190824361103927   T   T   T
  0.3222331040423695  0.6947330620468756  0.6669863779715982   T   T   T
  0.3392164762382737  0.6601747322885944  0.6906159654147112   T   T   T
