Ag Pd  C  O 
 1.0000000000000000
     8.3348369443761747    0.0000000000000000    0.0000000000000005
     4.1674184721880891    7.2181805302308319    0.0000000000000005
     0.0000000000000000    0.0000000000000000   47.6375610737127033
 Ag  Pd  C   O  
   9  27   1   1
Selective dynamics
Direct
  0.6666666666666667  0.6666666666666667  0.4761904572003339   F   F   F
  0.4444444444444448  0.4444444444444445  0.5238095048193816   F   F   F
  0.4444444444444446  1.1111111111111112  0.5238095048193816   F   F   F
  0.9981023570874235  0.6668753356725413  0.6221970388268238   T   T   T
  0.3360268812400906  0.6644639044960600  0.6225684499503479   T   T   T
  0.2228153233642891  0.2224737400900917  0.5717135996896181   T   T   T
  0.2248028066168162  0.8859190380600751  0.5724849140143384   T   T   T
  0.8890933402749578  0.2224097123107266  0.5716672294742919   T   T   T
  0.8900650264336607  0.8873645362717536  0.5723167976679495   T   T   T
  0.3333333924137755  0.3333333924137756  0.4761904825205235   F   F   F
  0.3333333924137756  1.0000000590804423  0.4761904825205235   F   F   F
  1.0000000590804421  0.3333333924137756  0.4761904825205235   F   F   F
  1.0000000590804421  1.0000000590804423  0.4761904825205235   F   F   F
  0.6666665485057828  0.3333333924137756  0.4761904825205235   F   F   F
  0.6666665485057829  1.0000000590804423  0.4761904825205235   F   F   F
  0.3333333924137759  0.6666665485057824  0.4761904825205235   F   F   F
  1.0000000590804428  0.6666665485057824  0.4761904825205235   F   F   F
  0.5554504712368571  0.5553400443289470  0.5717419827092070   T   T   T
  0.1111111701915532  0.1111111701915532  0.5238095301395711   F   F   F
  0.1111111701915533  0.7777778368582199  0.5238095301395711   F   F   F
  0.7777778368582201  0.1111111701915532  0.5238095301395711   F   F   F
  0.7777778368582201  0.7777778368582199  0.5238095301395711   F   F   F
  0.3370631189956566  0.3292007395342004  0.6192874433536035   T   T   T
  0.3357940098799161  1.0035308184302498  0.6200373669040696   T   T   T
  0.9999715175053372  0.3335694810000802  0.6198613892531496   T   T   T
  0.9972351344726158  1.0073396057426149  0.6207324109794393   T   T   T
  0.2235538496830718  0.5548377609951752  0.5721310777337213   T   T   T
  0.8893578202887621  0.5555257712907516  0.5711248804989645   T   T   T
  0.4444443262835602  0.7777778368582199  0.5238095301395711   F   F   F
  0.6694501354589587  0.3319194919269646  0.6194356122203184   T   T   T
  0.6640244577441299  1.0024934722350249  0.6197332232308380   T   T   T
  0.5566686123885808  0.2224092361411453  0.5718781311574470   T   T   T
  0.5576408518951019  0.8872195257656715  0.5716868454730255   T   T   T
  0.1111111701915534  0.4444443262835603  0.5238095301395711   F   F   F
  0.7777778368582202  0.4444443262835603  0.5238095301395711   F   F   F
  0.6699657883285209  0.6667152049336930  0.6188444041604154   T   T   T
  0.3275139145139648  0.6852829668298489  0.6668170755708318   T   T   T
  0.3375289259137058  0.6619666403944467  0.6905717316674379   T   T   T
