Pd 
 1.0000000000000000
     8.2582115393440390    0.0000000000000000    0.0000000000000006
    -4.1291057696720213    7.1518209828977302    0.0000000000000006
     0.0000000000000000    0.0000000000000000   40.4568089187138042
 Pd 
  36
Selective dynamics
Direct
  0.0000003242213467  0.0000001621106736  0.4166666666666669   F   F   F
  0.0000003242213467  0.3333334954440070  0.4166666666666669   F   F   F
  0.0000003242213466  0.6666668287773403  0.4166666666666669   F   F   F
  0.3333336575546800  0.0000001621106736  0.4166666666666669   F   F   F
  0.3333336575546800  0.3333334954440070  0.4166666666666669   F   F   F
  0.3333336575546799  0.6666668287773403  0.4166666666666669   F   F   F
  0.6666669908880133  0.0000001621106736  0.4166666666666669   F   F   F
  0.6666669908880132  0.3333334954440070  0.4166666666666669   F   F   F
  0.6666669908880132  0.6666668287773403  0.4166666666666669   F   F   F
  0.1111114353324573  0.2222223843328956  0.4722222222222223   F   F   F
  0.1111114353324573  0.5555557176662289  0.4722222222222223   F   F   F
  0.1111114353324574  0.8888890509995623  0.4722222222222223   F   F   F
  0.4444447686657906  0.2222223843328956  0.4722222222222223   F   F   F
  0.4444447686657906  0.5555557176662289  0.4722222222222223   F   F   F
  0.4444447686657906  0.8888890509995623  0.4722222222222223   F   F   F
  0.7777781019991239  0.2222223843328956  0.4722222222222223   F   F   F
  0.7777781019991239  0.5555557176662289  0.4722222222222223   F   F   F
  0.7777781019991239  0.8888890509995623  0.4722222222222223   F   F   F
  0.2222213544284111  0.1111104609430704  0.5274703064141798   T   T   T
  0.2222209197838345  0.4444435815485270  0.5274702702789906   T   T   T
  0.2222211992051546  0.7777770698960720  0.5274702773125486   T   T   T
  0.5555548559314650  0.1111105632955214  0.5274703399065911   T   T   T
  0.5555547626837536  0.4444436778210822  0.5274702612501214   T   T   T
  0.5555547329972021  0.7777772832240493  0.5274702665999892   T   T   T
  0.8888881097708257  0.1111108729025927  0.5274703462507107   T   T   T
  0.8888881696905564  0.4444436415635407  0.5274703349222930   T   T   T
  0.8888881426734841  0.7777770870560484  0.5274702948751531   T   T   T
  0.0000011987736689  0.0000015661042531  0.5836781868282516   T   T   T
  0.0000000859607356  0.3333338691569424  0.5836782136315724   T   T   T
  0.0000010398640302  0.6666673161640336  0.5836780582498365   T   T   T
  0.3333344292101604  0.0000011884900646  0.5836781679498081   T   T   T
  0.3333335145651647  0.3333333366843385  0.5836779121108955   T   T   T
  0.3333334287396741  0.6666677766031053  0.5836778192366978   T   T   T
  0.6666683543884803  0.0000024476122528  0.5836780517639314   T   T   T
  0.6666682715959392  0.3333337369085924  0.5836780717137355   T   T   T
  0.6666684535445928  0.6666679255776150  0.5836777997352853   T   T   T
