Ag  C  O 
 1.0000000000000000
     8.5983832630900725    0.0000000000000000    0.3096632092506426
     4.2936155075093092    7.4496349315025547    0.3096632092506426
     0.0000000000000000    0.0000000000000000   39.8433329235828140
 Ag  C   O  
  36   1   1
Selective dynamics
Direct
  0.1567869020482786  0.1567864110214371  0.5892939838066270   T   T   T
  0.1547776218482468  0.4900601856037635  0.5887011127591920   T   T   T
  0.1546161661757724  0.8258736221460138  0.5886619597295275   T   T   T
  0.4900603052777100  0.1547782566703995  0.5887010905054786   T   T   T
  0.4901286410644002  0.4901285621376152  0.5896633395466385   T   T   T
  0.4900963924484386  0.8260381492881065  0.5886086842912337   T   T   T
  0.8258727465934652  0.1546162569449553  0.5886619917725030   T   T   T
  0.8260380875905733  0.4900966059595304  0.5886087361118452   T   T   T
  0.8235148414553535  0.8235148821602667  0.5889550920973945   T   T   T
  0.2744409284152499  0.2744409605060323  0.5293213408217344   T   T   T
  0.2759729790841569  0.6070902396231052  0.5297349187446434   T   T   T
  0.2744262208419508  0.9413861068759652  0.5293031044575667   T   T   T
  0.6070904928552922  0.2759721620926218  0.5297351678577111   T   T   T
  0.6071586577513207  0.6071592852269253  0.5296897983018934   T   T   T
  0.6084161641715493  0.9410757865782524  0.5289321812545192   T   T   T
  0.9413866605027206  0.2744255474353657  0.5293032040910105   T   T   T
  0.9410753748865068  0.6084162034521758  0.5289321546689456   T   T   T
  0.9410048901176119  0.9410050247307253  0.5289304027474236   T   T   T
  0.0588233949072055  0.0588233949072054  0.4705882352941176   F   F   F
  0.0588233949072055  0.3921567282405387  0.4705882352941173   F   F   F
  0.0588233949072055  0.7254900615738720  0.4705882352941176   F   F   F
  0.3921567282405388  0.0588233949072054  0.4705882352941176   F   F   F
  0.3921567282405387  0.3921567282405387  0.4705882352941176   F   F   F
  0.3921567282405388  0.7254900615738720  0.4705882352941173   F   F   F
  0.7254900615738720  0.0588233949072054  0.4705882352941176   F   F   F
  0.7254900615738721  0.3921567282405387  0.4705882352941173   F   F   F
  0.7254900615738720  0.7254900615738720  0.4705882352941176   F   F   F
  0.1764704537307346  0.1764704537307344  0.4117647058823530   F   F   F
  0.1764704537307346  0.5098037870640678  0.4117647058823530   F   F   F
  0.1764704537307346  0.8431371203974013  0.4117647058823529   F   F   F
  0.5098037870640679  0.1764704537307344  0.4117647058823530   F   F   F
  0.5098037870640678  0.5098037870640678  0.4117647058823530   F   F   F
  0.5098037870640678  0.8431371203974013  0.4117647058823530   F   F   F
  0.8431371203974012  0.1764704537307344  0.4117647058823530   F   F   F
  0.8431371203974014  0.5098037870640678  0.4117647058823530   F   F   F
  0.8431371203974007  0.8431371203974013  0.4117647058823529   F   F   F
  0.4874435977237155  0.4874427805324238  0.6430829123591929   T   T   T
  0.4874808899251090  0.4874799936059379  0.6718725470470888   T   T   T
