Ag  H  O 
 1.0000000000000000
     8.5983832630900725    0.0000000000000000    0.3096632092506426
     4.2936155075093092    7.4496349315025547    0.3096632092506426
     0.0000000000000000    0.0000000000000000   39.8433329235828140
 Ag  H   O  
  36   1   1
Selective dynamics
Direct
  0.1569562860235658  0.1564040453986814  0.5891777512505680   T   T   T
  0.1549477068226108  0.4897653298740505  0.5885288216999119   T   T   T
  0.1557304884042043  0.8245598799214416  0.5890396723424265   T   T   T
  0.4899513121162378  0.1553918051379321  0.5889934606740487   T   T   T
  0.4904637049154513  0.4893927646342682  0.5905370656793683   T   T   T
  0.4901170379682915  0.8238455305958208  0.5892716657179256   T   T   T
  0.8244987816667605  0.1559355603672873  0.5892143828863665   T   T   T
  0.8250076349351153  0.4897581564915614  0.5887079182944283   T   T   T
  0.8234861683180604  0.8233929621705753  0.5890337659147724   T   T   T
  0.2749994600203073  0.2744191779973313  0.5292910650921263   T   T   T
  0.2765459718369071  0.6068034039695107  0.5299042423001442   T   T   T
  0.2749617648718016  0.9406017960963865  0.5294220585639330   T   T   T
  0.6068615291127224  0.2764252663219099  0.5299513661769081   T   T   T
  0.6068069386783737  0.6069473911839590  0.5298317458900296   T   T   T
  0.6080037256321819  0.9408995764832244  0.5293622043663856   T   T   T
  0.9408615139938578  0.2744508580790886  0.5293503923449211   T   T   T
  0.9408681099237521  0.6082140704894575  0.5291051046333767   T   T   T
  0.9410424197512363  0.9412942051419868  0.5293522943306174   T   T   T
  0.0588233949072055  0.0588233949072054  0.4705882352941176   F   F   F
  0.0588233949072055  0.3921567282405387  0.4705882352941173   F   F   F
  0.0588233949072055  0.7254900615738720  0.4705882352941176   F   F   F
  0.3921567282405388  0.0588233949072054  0.4705882352941176   F   F   F
  0.3921567282405387  0.3921567282405387  0.4705882352941176   F   F   F
  0.3921567282405388  0.7254900615738720  0.4705882352941173   F   F   F
  0.7254900615738720  0.0588233949072054  0.4705882352941176   F   F   F
  0.7254900615738721  0.3921567282405387  0.4705882352941173   F   F   F
  0.7254900615738720  0.7254900615738720  0.4705882352941176   F   F   F
  0.1764704537307346  0.1764704537307344  0.4117647058823530   F   F   F
  0.1764704537307346  0.5098037870640678  0.4117647058823530   F   F   F
  0.1764704537307346  0.8431371203974013  0.4117647058823529   F   F   F
  0.5098037870640679  0.1764704537307344  0.4117647058823530   F   F   F
  0.5098037870640678  0.5098037870640678  0.4117647058823530   F   F   F
  0.5098037870640678  0.8431371203974013  0.4117647058823530   F   F   F
  0.8431371203974012  0.1764704537307344  0.4117647058823530   F   F   F
  0.8431371203974014  0.5098037870640678  0.4117647058823530   F   F   F
  0.8431371203974007  0.8431371203974013  0.4117647058823529   F   F   F
  0.5832546715878306  0.4886338317454268  0.6522922587093516   T   T   T
  0.4754831022288327  0.4916396948800721  0.6440203397332497   T   T   T
