Ag  H  O 
 1.0000000000000000
     8.5983832630900725    0.0000000000000000    0.3096632092506426
     4.2936155075093092    7.4496349315025547    0.3096632092506426
     0.0000000000000000    0.0000000000000000   39.8433329235828140
 Ag  H   O  
  36   1   1
Selective dynamics
Direct
  0.1569607540896596  0.1564059794450418  0.5891700756264535   T   T   T
  0.1549526030396688  0.4897677157036497  0.5885184338409045   T   T   T
  0.1557350527922477  0.8245601418172943  0.5890284632018153   T   T   T
  0.4899539529752134  0.1553983110982577  0.5889828166605063   T   T   T
  0.4904471714551905  0.4893955350230783  0.5905348222163770   T   T   T
  0.4901181444378684  0.8238444760450906  0.5892613382786228   T   T   T
  0.8244927256001654  0.1559447050044424  0.5892043558178397   T   T   T
  0.8250034134552576  0.4897602596000506  0.5886983307783792   T   T   T
  0.8234907831128910  0.8233949820447634  0.5890254345081377   T   T   T
  0.2749996123157096  0.2744181920510258  0.5292855877262643   T   T   T
  0.2765583742797094  0.6067983209225165  0.5299007782583319   T   T   T
  0.2749623543954025  0.9406065471456175  0.5294165512942317   T   T   T
  0.6068563325836100  0.2764384807823154  0.5299486769638416   T   T   T
  0.6068014096960204  0.6069416439039705  0.5298298070284287   T   T   T
  0.6080065296113587  0.9408990685546289  0.5293569091787307   T   T   T
  0.9408663895960454  0.2744501646519554  0.5293455467766891   T   T   T
  0.9408676187943406  0.6082159229765497  0.5291002536537033   T   T   T
  0.9410418506790222  0.9412957729295647  0.5293471936448677   T   T   T
  0.0588233949072055  0.0588233949072054  0.4705882352941176   F   F   F
  0.0588233949072055  0.3921567282405387  0.4705882352941173   F   F   F
  0.0588233949072055  0.7254900615738720  0.4705882352941176   F   F   F
  0.3921567282405388  0.0588233949072054  0.4705882352941176   F   F   F
  0.3921567282405387  0.3921567282405387  0.4705882352941176   F   F   F
  0.3921567282405388  0.7254900615738720  0.4705882352941173   F   F   F
  0.7254900615738720  0.0588233949072054  0.4705882352941176   F   F   F
  0.7254900615738721  0.3921567282405387  0.4705882352941173   F   F   F
  0.7254900615738720  0.7254900615738720  0.4705882352941176   F   F   F
  0.1764704537307346  0.1764704537307344  0.4117647058823530   F   F   F
  0.1764704537307346  0.5098037870640678  0.4117647058823530   F   F   F
  0.1764704537307346  0.8431371203974013  0.4117647058823529   F   F   F
  0.5098037870640679  0.1764704537307344  0.4117647058823530   F   F   F
  0.5098037870640678  0.5098037870640678  0.4117647058823530   F   F   F
  0.5098037870640678  0.8431371203974013  0.4117647058823530   F   F   F
  0.8431371203974012  0.1764704537307344  0.4117647058823530   F   F   F
  0.8431371203974014  0.5098037870640678  0.4117647058823530   F   F   F
  0.8431371203974007  0.8431371203974013  0.4117647058823529   F   F   F
  0.5832640390462582  0.4886319924264121  0.6522960048139479   T   T   T
  0.4754870303380844  0.4916215200920620  0.6440337769077721   T   T   T
