 H Pd  O 
 1.0000000000000000
     8.2582115393440390    0.0000000000000000    0.0000000000000006
    -4.1291057696720213    7.1518209828977302    0.0000000000000006
     0.0000000000000000    0.0000000000000000   40.4568089187138042
 H   Pd  O  
   1  36   1
Selective dynamics
Direct
  0.7615730127192019  0.6663034133679702  0.6442517618255411   T   T   T
  0.0000003242213467  0.0000001621106736  0.4166666666666669   F   F   F
  0.0000003242213467  0.3333334954440070  0.4166666666666669   F   F   F
  0.0000003242213466  0.6666668287773403  0.4166666666666669   F   F   F
  0.3333336575546800  0.0000001621106736  0.4166666666666669   F   F   F
  0.3333336575546800  0.3333334954440070  0.4166666666666669   F   F   F
  0.3333336575546799  0.6666668287773403  0.4166666666666669   F   F   F
  0.6666669908880133  0.0000001621106736  0.4166666666666669   F   F   F
  0.6666669908880132  0.3333334954440070  0.4166666666666669   F   F   F
  0.6666669908880132  0.6666668287773403  0.4166666666666669   F   F   F
  0.1111114353324573  0.2222223843328956  0.4722222222222223   F   F   F
  0.1111114353324573  0.5555557176662289  0.4722222222222223   F   F   F
  0.1111114353324574  0.8888890509995623  0.4722222222222223   F   F   F
  0.4444447686657906  0.2222223843328956  0.4722222222222223   F   F   F
  0.4444447686657906  0.5555557176662289  0.4722222222222223   F   F   F
  0.4444447686657906  0.8888890509995623  0.4722222222222223   F   F   F
  0.7777781019991239  0.2222223843328956  0.4722222222222223   F   F   F
  0.7777781019991239  0.5555557176662289  0.4722222222222223   F   F   F
  0.7777781019991239  0.8888890509995623  0.4722222222222223   F   F   F
  0.2224167625502937  0.1111060702455096  0.5275270014510989   T   T   T
  0.2223455701131603  0.4443063778598721  0.5275273288158411   T   T   T
  0.2223541137885718  0.7779730928674524  0.5274629105396246   T   T   T
  0.5557553412921995  0.1112350963936836  0.5275408015161586   T   T   T
  0.5566166755199183  0.4459594492470129  0.5281725740775659   T   T   T
  0.5564628029983564  0.7773559940031262  0.5279883148941608   T   T   T
  0.8892687233908453  0.1113145417614386  0.5275749142414351   T   T   T
  0.8891417435451334  0.4444247243883999  0.5275951805212871   T   T   T
  0.8876769750369027  0.7771390275668359  0.5281847739783565   T   T   T
  0.0016380122564525  0.0006317214114629  0.5837671363618754   T   T   T
  0.0004663095229142  0.3330794564783392  0.5838470617324680   T   T   T
  0.0017879047193618  0.6666174405093094  0.5837440146216228   T   T   T
  0.3337971054650198 -0.0002532059658179  0.5839316190654548   T   T   T
  0.3323819900287406  0.3314862428004027  0.5836748765121924   T   T   T
  0.3322042659762374  0.6666497128791254  0.5834321318702554   T   T   T
  0.6670666713188833  0.0009375829244884  0.5836177419603058   T   T   T
  0.6672177177141153  0.3318667707346029  0.5837961974053235   T   T   T
  0.6663161538078094  0.6658299053823616  0.5860381770111056   T   T   T
  0.6495908582600268  0.6679079402416745  0.6364809011199160   T   T   T
