Ag Pd  C  O 
 1.0000000000000000
     8.4012246744318553    0.0000000000000000    0.0000000000000006
     0.0000000000000016    9.7556249397631500    0.0778334351619916
     0.0000000000000000    0.0000000000000000   41.2743430770740716
 Ag  Pd  C   O  
  24  24   1   1
Selective dynamics
Direct
  0.1649002158949884  0.2509513839905801  0.5849931428513587   T   T   T
  0.1661528402747920  0.7512436826935923  0.5855123064757194   T   T   T
  0.4999783722989110  0.2485870988678789  0.5855623795430236   T   T   T
  0.4999896367516835  0.7510246922332007  0.5855669454693972   T   T   T
  0.8350538088798167  0.2509503347410912  0.5849957660978240   T   T   T
  0.8338251711235283  0.7512430900533913  0.5855130613122280   T   T   T
  0.1666147962626290  0.4165879123288771  0.5279895993113869   T   T   T
  0.1667640789415649  0.9164784878009383  0.5279720944784262   T   T   T
  0.4999932486408691  0.4165624134087970  0.5281756999036464   T   T   T
  0.4999961826974135  0.9164991394445163  0.5280245781564453   T   T   T
  0.8333689605486030  0.4165860658635164  0.5279899825564845   T   T   T
  0.8332282351922067  0.9164775425021603  0.5279720692667834   T   T   T
  0.1666664815226225  0.0833334535709418  0.4722222217898217   F   F   F
  0.1666664815226226  0.5833334535709418  0.4722222217898217   F   F   F
  0.4999998148559556  0.0833334535709418  0.4722222217898217   F   F   F
  0.4999998148559556  0.5833334535709418  0.4722222217898217   F   F   F
  0.8333331481892892  0.0833334535709418  0.4722222217898217   F   F   F
  0.8333331481892892  0.5833334535709418  0.4722222217898217   F   F   F
  0.1666664815226225  0.2500001202376085  0.4166666662342661   F   F   F
  0.1666664815226226  0.7500001202376085  0.4166666662342661   F   F   F
  0.4999998148559556  0.2500001202376085  0.4166666662342661   F   F   F
  0.4999998148559556  0.7500001202376085  0.4166666662342661   F   F   F
  0.8333331481892892  0.2500001202376085  0.4166666662342661   F   F   F
  0.8333331481892892  0.7500001202376085  0.4166666662342661   F   F   F
  0.3323825214352610  0.0003208081674034  0.5831254280558991   T   T   T
  0.3322572736107177  0.5042314004784383  0.5831366833341687   T   T   T
  0.6676018779419569  0.0003207269093927  0.5831254879504514   T   T   T
  0.6677250316138009  0.5042310063536829  0.5831367308412956   T   T   T
  0.9999908675200536  0.0024549044559516  0.5831722187419534   T   T   T
  0.9999900891924459  0.5032225115628358  0.5831517993695807   T   T   T
  0.3339906089645439  0.1683407822974316  0.5282859084125169   T   T   T
  0.3334746813784687  0.6677058695681832  0.5281093516991762   T   T   T
  0.6659925936839759  0.1683397615524088  0.5282862012047114   T   T   T
  0.6665097809429189  0.6677058273562744  0.5281093410815800   T   T   T
  0.9999905626979594  0.1672086098208269  0.5278852424104573   T   T   T
  0.9999916621253004  0.6677280035560662  0.5280753300925364   T   T   T
  0.3333331481892897  0.3333334587597487  0.4722222226546229   F   F   F
  0.3333331481892897  0.8333334587597487  0.4722222226546229   F   F   F
  0.6666664815226231  0.3333334587597487  0.4722222226546229   F   F   F
  0.6666664815226231  0.8333334587597487  0.4722222226546229   F   F   F
  0.9999998148559561  0.3333334587597487  0.4722222226546229   F   F   F
  0.9999998148559563  0.8333334587597487  0.4722222226546229   F   F   F
  0.3333331481892892  0.0000001254264155  0.4166666670990671   F   F   F
  0.3333331481892892  0.5000001254264155  0.4166666670990673   F   F   F
  0.6666664815226225  0.0000001254264155  0.4166666670990671   F   F   F
  0.6666664815226224  0.5000001254264155  0.4166666670990673   F   F   F
  0.9999998148559557  0.0000001254264155  0.4166666670990671   F   F   F
  0.9999998148559557  0.5000001254264155  0.4166666670990673   F   F   F
  0.4999926105002667  0.2695162502795677  0.6364079722060497   T   T   T
  0.5000428509478472  0.2438057580526901  0.6635566526423469   T   T   T
