Ag Pd  C  O 
 1.0000000000000000
     8.5013114179517117    0.0000000000000000    0.0000000000000005
     4.2506557089758541    7.3623516534288900    0.0000000000000005
     0.0000000000000000    0.0000000000000000   48.5890419431158733
 Ag  Pd  C   O  
  26  10   1   1
Selective dynamics
Direct
  0.6666666666666671  0.6666666666666666  0.4761904911784334   F   F   F
  0.3333332867041333  0.3333332867041335  0.4761904711944905   F   F   F
  0.3333332867041333  0.9999999533708002  0.4761904711944905   F   F   F
  0.9999999533707997  0.3333332867041335  0.4761904711944905   F   F   F
  0.9999999533707999  0.9999999533708002  0.4761904711944905   F   F   F
  0.6666667599250664  0.3333332867041335  0.4761904711944905   F   F   F
  0.6666667599250664  0.9999999533708002  0.4761904711944905   F   F   F
  0.4444444444444445  0.4444444444444445  0.5238095387974809   F   F   F
  0.6647762354917486  0.6714858252405608  0.6205902496984608   T   T   T
  0.2239146364221588  0.2214234207057094  0.5712270099710224   T   T   T
  0.2220212467305470  0.8905193606251542  0.5715497332710489   T   T   T
  0.8876304144011418  0.2220000213384470  0.5711640192116365   T   T   T
  0.8856362171143606  0.8917084725109147  0.5714080601094225   T   T   T
  0.5570337441678712  0.5557626530873409  0.5717124126589792   T   T   T
  0.1111110644819112  0.7777777311485777  0.5238095188135381   F   F   F
  0.7777777311485781  0.7777777311485777  0.5238095188135381   F   F   F
  0.3318333709499023  0.3373914074277911  0.6200761601769610   T   T   T
  0.3303137274896445  1.0016463831942632  0.6199493197947383   T   T   T
  1.0002867263896280  0.3348406821750327  0.6202953539341777   T   T   T
  1.0012253176563544  0.9978722408622128  0.6212621179160613   T   T   T
  0.2230069790073660  0.5533670410642745  0.5712188615363338   T   T   T
  0.8872561703405599  0.5559071921362445  0.5714702760255921   T   T   T
  0.4444445377028442  0.1111110644819113  0.5238095188135381   F   F   F
  0.4444445377028442  0.7777777311485780  0.5238095188135381   F   F   F
  0.6650014689921439  0.3335605947734560  0.6197146990310037   T   T   T
  0.6671660820702637  1.0019611801492319  0.6194634861344921   T   T   T
  0.3333332867041338  0.6666667599250664  0.4761904711944905   F   F   F
  0.9999999533708005  0.6666667599250664  0.4761904711944905   F   F   F
  0.5558100049285194  0.2215110118979609  0.5715894196446190   T   T   T
  0.5556664218082453  0.8881533321294144  0.5720717852538849   T   T   T
  0.1111110644819112  0.4444445377028443  0.5238095188135381   F   F   F
  0.1111110644819112  1.1111112043695111  0.5238095188135381   F   F   F
  0.7777777311485784  0.4444445377028443  0.5238095188135381   F   F   F
  0.7777777311485777  1.1111112043695111  0.5238095188135381   F   F   F
  0.3288308886066487  0.6684927142136868  0.6178651095651030   T   T   T
  1.0021352461305577  0.6677933256207970  0.6177679027761986   T   T   T
  0.6623132249971405  0.6628277729618690  0.6641654704253964   T   T   T
  0.6694730697671631  0.6655669016208361  0.6876254984134013   T   T   T
