 H Pd  C  O 
 1.0000000000000000
     8.2582115393440390    0.0000000000000000    0.0000000000000006
    -4.1291057696720213    7.1518209828977302    0.0000000000000006
     0.0000000000000000    0.0000000000000000   40.4568089187138042
 H   Pd  C   O  
   3  36   1   4
Selective dynamics
Direct
  0.0535638149911250 -0.0888958047452363  0.6377510708757982   T   T   T
  0.8088141413170736  0.4360519191083021  0.6376314214847355   T   T   T
  0.1144821482862552  0.6629519994071007  0.6434544223015901   T   T   T
  0.0000003242213467  0.0000001621106736  0.4166666666666669   F   F   F
  0.0000003242213467  0.3333334954440070  0.4166666666666669   F   F   F
  0.0000003242213466  0.6666668287773403  0.4166666666666669   F   F   F
  0.3333336575546800  0.0000001621106736  0.4166666666666669   F   F   F
  0.3333336575546800  0.3333334954440070  0.4166666666666669   F   F   F
  0.3333336575546799  0.6666668287773403  0.4166666666666669   F   F   F
  0.6666669908880133  0.0000001621106736  0.4166666666666669   F   F   F
  0.6666669908880132  0.3333334954440070  0.4166666666666669   F   F   F
  0.6666669908880132  0.6666668287773403  0.4166666666666669   F   F   F
  0.1111114353324573  0.2222223843328956  0.4722222222222223   F   F   F
  0.1111114353324573  0.5555557176662289  0.4722222222222223   F   F   F
  0.1111114353324574  0.8888890509995623  0.4722222222222223   F   F   F
  0.4444447686657906  0.2222223843328956  0.4722222222222223   F   F   F
  0.4444447686657906  0.5555557176662289  0.4722222222222223   F   F   F
  0.4444447686657906  0.8888890509995623  0.4722222222222223   F   F   F
  0.7777781019991239  0.2222223843328956  0.4722222222222223   F   F   F
  0.7777781019991239  0.5555557176662289  0.4722222222222223   F   F   F
  0.7777781019991239  0.8888890509995623  0.4722222222222223   F   F   F
  0.2217008210758691  0.1106185856181790  0.5274730081042587   T   T   T
  0.2220248657187123  0.4434992598986262  0.5273460631499316   T   T   T
  0.2214660143420507  0.7771435907247825  0.5275741498976919   T   T   T
  0.5557090681791808  0.1109987972321082  0.5274640236647695   T   T   T
  0.5565338483211645  0.4441999231132967  0.5284728235488110   T   T   T
  0.5555774724210536  0.7770117160881908  0.5274558742196088   T   T   T
  0.8888421145112571  0.1097555270079160  0.5277821506526447   T   T   T
  0.8889460739525464  0.4450004767975667  0.5279755668807827   T   T   T
  0.8873177342603616  0.7762332496136323  0.5288887425491612   T   T   T
  0.0024566754035758  0.0054853231906328  0.5842825117772260   T   T   T
  0.0002816948412636  0.3344021029372869  0.5833053537840932   T   T   T
  0.0037151376563045  0.6668078619946273  0.5848280190782924   T   T   T
  0.3340297456769604 -0.0002823123017394  0.5833750850214979   T   T   T
  0.3316540402896361  0.3325646375713480  0.5837204649158773   T   T   T
  0.3332862683770388  0.6672653917852268  0.5833214601439946   T   T   T
  0.6652421346451856  0.0012779872495507  0.5835278719715654   T   T   T
  0.6641803483401638  0.3314882858423366  0.5844610430796864   T   T   T
  0.6660741981949482  0.6682463108426506  0.5855268565733783   T   T   T
  0.6256861184573909  0.6732891935515966  0.6309318190189556   T   T   T
  0.6160495621948856  0.6766828517222587  0.6593119649026182   T   T   T
  0.0677942713541881  0.0357434217469838  0.6318246805051660   T   T   T
  0.6984857008747354  0.3100119626091501  0.6322456014447085   T   T   T
  0.0060818215383780  0.6707619465191911  0.6353619068203156   T   T   T
