 H Pd  C  O 
 1.0000000000000000
     8.2582115393440390    0.0000000000000000    0.0000000000000006
    -4.1291057696720213    7.1518209828977302    0.0000000000000006
     0.0000000000000000    0.0000000000000000   40.4568089187138042
 H   Pd  C   O  
   3  36   1   4
Selective dynamics
Direct
  0.0535882486090867 -0.0888393161390990  0.6377557499288082   T   T   T
  0.8087897255623164  0.4360437708818394  0.6376328497737606   T   T   T
  0.1144795798158484  0.6629253622078977  0.6434519560509279   T   T   T
  0.0000003242213467  0.0000001621106736  0.4166666666666669   F   F   F
  0.0000003242213467  0.3333334954440070  0.4166666666666669   F   F   F
  0.0000003242213466  0.6666668287773403  0.4166666666666669   F   F   F
  0.3333336575546800  0.0000001621106736  0.4166666666666669   F   F   F
  0.3333336575546800  0.3333334954440070  0.4166666666666669   F   F   F
  0.3333336575546799  0.6666668287773403  0.4166666666666669   F   F   F
  0.6666669908880133  0.0000001621106736  0.4166666666666669   F   F   F
  0.6666669908880132  0.3333334954440070  0.4166666666666669   F   F   F
  0.6666669908880132  0.6666668287773403  0.4166666666666669   F   F   F
  0.1111114353324573  0.2222223843328956  0.4722222222222223   F   F   F
  0.1111114353324573  0.5555557176662289  0.4722222222222223   F   F   F
  0.1111114353324574  0.8888890509995623  0.4722222222222223   F   F   F
  0.4444447686657906  0.2222223843328956  0.4722222222222223   F   F   F
  0.4444447686657906  0.5555557176662289  0.4722222222222223   F   F   F
  0.4444447686657906  0.8888890509995623  0.4722222222222223   F   F   F
  0.7777781019991239  0.2222223843328956  0.4722222222222223   F   F   F
  0.7777781019991239  0.5555557176662289  0.4722222222222223   F   F   F
  0.7777781019991239  0.8888890509995623  0.4722222222222223   F   F   F
  0.2216936521413380  0.1106103752076440  0.5274699685481965   T   T   T
  0.2220198192230659  0.4434982209777404  0.5273433339557337   T   T   T
  0.2214617111066291  0.7771376910799237  0.5275717073621130   T   T   T
  0.5557077388336378  0.1109910514022895  0.5274614777905012   T   T   T
  0.5565330468562204  0.4442021105120005  0.5284704116743479   T   T   T
  0.5555754495358884  0.7770114225505476  0.5274540619608279   T   T   T
  0.8888329289970007  0.1097494125627402  0.5277792286280658   T   T   T
  0.8889446566833127  0.4449998745011440  0.5279734882070133   T   T   T
  0.8873149127136644  0.7762320524868664  0.5288867562936117   T   T   T
  0.0024454332334616  0.0054676357159164  0.5842834343847516   T   T   T
  0.0002709298413781  0.3343949763072671  0.5833043563269604   T   T   T
  0.0037095454652297  0.6668010141576272  0.5848295440340688   T   T   T
  0.3340200882836445 -0.0003032008381283  0.5833742592014992   T   T   T
  0.3316435075668794  0.3325556812619874  0.5837215810922136   T   T   T
  0.3332762207706374  0.6672565879014085  0.5833210573828700   T   T   T
  0.6652315157941313  0.0012629689467856  0.5835271880584028   T   T   T
  0.6641781124510074  0.3314786253883844  0.5844626224340956   T   T   T
  0.6660626658487416  0.6682394549537730  0.5855291854384670   T   T   T
  0.6257194188290196  0.6732911838940239  0.6309365056054451   T   T   T
  0.6160980582552421  0.6766849572221637  0.6593125923348383   T   T   T
  0.0677749215894976  0.0357919769098898  0.6318241561991540   T   T   T
  0.6984473214908926  0.3100075112679970  0.6322456714211866   T   T   T
  0.0060860348563319  0.6707676183736060  0.6353621355351685   T   T   T
