Ag Pd  C  O 
 1.0000000000000000
     8.5013114179517117    0.0000000000000000    0.0000000000000005
     4.2506557089758541    7.3623516534288900    0.0000000000000005
     0.0000000000000000    0.0000000000000000   48.5890419431158733
 Ag  Pd  C   O  
  26  10   1   1
Selective dynamics
Direct
  0.6666666666666671  0.6666666666666666  0.4761904911784334   F   F   F
  0.3333332867041333  0.3333332867041335  0.4761904711944905   F   F   F
  0.3333332867041333  0.9999999533708002  0.4761904711944905   F   F   F
  0.9999999533707997  0.3333332867041335  0.4761904711944905   F   F   F
  0.9999999533707999  0.9999999533708002  0.4761904711944905   F   F   F
  0.6666667599250664  0.3333332867041335  0.4761904711944905   F   F   F
  0.6666667599250664  0.9999999533708002  0.4761904711944905   F   F   F
  0.4444444444444445  0.4444444444444445  0.5238095387974809   F   F   F
  0.6648530689425828  0.6715337691726144  0.6205405294934764   T   T   T
  0.2240804807042974  0.2213450543844992  0.5712025594248444   T   T   T
  0.2222018832097455  0.8903389875619242  0.5715178214011729   T   T   T
  0.8875984336437762  0.2219035092778231  0.5711271995909701   T   T   T
  0.8855620458986114  0.8916015919534891  0.5713662634442753   T   T   T
  0.5570525304784020  0.5557709717054070  0.5716371615416865   T   T   T
  0.1111110644819112  0.7777777311485777  0.5238095188135381   F   F   F
  0.7777777311485781  0.7777777311485777  0.5238095188135381   F   F   F
  0.3317889962728297  0.3375558370254346  0.6201320796595604   T   T   T
  0.3302544281424167  1.0015986420691745  0.6199819726078399   T   T   T
  1.0005114236897303  0.3347660614731560  0.6203870575570859   T   T   T
  1.0013649812953418  0.9975392846533313  0.6213983753478237   T   T   T
  0.2230974265019808  0.5532494126293294  0.5712157733600329   T   T   T
  0.8872899304421973  0.5559231675585455  0.5713966004489629   T   T   T
  0.4444445377028442  0.1111110644819113  0.5238095188135381   F   F   F
  0.4444445377028442  0.7777777311485780  0.5238095188135381   F   F   F
  0.6649049166438502  0.3334501407245231  0.6197653608467466   T   T   T
  0.6672839899578842  1.0020310938329742  0.6194786146515283   T   T   T
  0.3333332867041338  0.6666667599250664  0.4761904711944905   F   F   F
  0.9999999533708005  0.6666667599250664  0.4761904711944905   F   F   F
  0.5559759150166506  0.2213250354647463  0.5715535573308090   T   T   T
  0.5558023724355349  0.8879912972993060  0.5720555509747478   T   T   T
  0.1111110644819112  0.4444445377028443  0.5238095188135381   F   F   F
  0.1111110644819112  1.1111112043695111  0.5238095188135381   F   F   F
  0.7777777311485784  0.4444445377028443  0.5238095188135381   F   F   F
  0.7777777311485777  1.1111112043695111  0.5238095188135381   F   F   F
  0.3287389955632982  0.6683696664867900  0.6179144971917240   T   T   T
  1.0024685735599459  0.6677042278982556  0.6178223750841715   T   T   T
  0.6623456450513225  0.6630517485849703  0.6639268795600662   T   T   T
  0.6693957239523070  0.6657800278132950  0.6874443873304288   T   T   T
