 H Pd  O 
 1.0000000000000000
     8.2582115393440390    0.0000000000000000    0.0000000000000006
    -4.1291057696720213    7.1518209828977302    0.0000000000000006
     0.0000000000000000    0.0000000000000000   40.4568089187138042
 H   Pd  O  
   9  36   9
Selective dynamics
Direct
  0.7732130382685969  0.6670140957367877  0.6397270428848848   T   T   T
  0.1073632254370801  0.6667393034818605  0.6392344176692240   T   T   T
  0.4401983818759558  1.0003978245128533  0.6392864883966646   T   T   T
  0.1065992898666051  0.3331918538127950  0.6392823890032039   T   T   T
  0.4405218066139754  0.3335094813632622  0.6392308051083178   T   T   T
  0.7733694438304414  0.3328363223514609  0.6392511917389352   T   T   T
  0.4408028788860634  0.6668875887546736  0.6392709521088263   T   T   T
  0.1072980428222825  0.0007694550996484  0.6392501370885544   T   T   T
  0.7738780184932800  0.0002132802974378  0.6392378605264215   T   T   T
  0.0000003242213467  0.0000001621106736  0.4166666666666669   F   F   F
  0.0000003242213467  0.3333334954440070  0.4166666666666669   F   F   F
  0.0000003242213466  0.6666668287773403  0.4166666666666669   F   F   F
  0.3333336575546800  0.0000001621106736  0.4166666666666669   F   F   F
  0.3333336575546800  0.3333334954440070  0.4166666666666669   F   F   F
  0.3333336575546799  0.6666668287773403  0.4166666666666669   F   F   F
  0.6666669908880133  0.0000001621106736  0.4166666666666669   F   F   F
  0.6666669908880132  0.3333334954440070  0.4166666666666669   F   F   F
  0.6666669908880132  0.6666668287773403  0.4166666666666669   F   F   F
  0.1111114353324573  0.2222223843328956  0.4722222222222223   F   F   F
  0.1111114353324573  0.5555557176662289  0.4722222222222223   F   F   F
  0.1111114353324574  0.8888890509995623  0.4722222222222223   F   F   F
  0.4444447686657906  0.2222223843328956  0.4722222222222223   F   F   F
  0.4444447686657906  0.5555557176662289  0.4722222222222223   F   F   F
  0.4444447686657906  0.8888890509995623  0.4722222222222223   F   F   F
  0.7777781019991239  0.2222223843328956  0.4722222222222223   F   F   F
  0.7777781019991239  0.5555557176662289  0.4722222222222223   F   F   F
  0.7777781019991239  0.8888890509995623  0.4722222222222223   F   F   F
  0.2206310615882683  0.1134763183116470  0.5279677233595300   T   T   T
  0.2205898034961723  0.4467964150811485  0.5279751994141059   T   T   T
  0.2206051418597159  0.7800832670725507  0.5279796620070404   T   T   T
  0.5539543325429156  0.1134248178350594  0.5279668762727771   T   T   T
  0.5540691106311613  0.4469301967340519  0.5280267161714872   T   T   T
  0.5540141559558226  0.7800142549477790  0.5280414084971802   T   T   T
  0.8872641710398431  0.1134433941949934  0.5279637844989814   T   T   T
  0.8872680986882632  0.4468406155696082  0.5279790144263782   T   T   T
  0.8872349998757746  0.7800591073299011  0.5280145093836863   T   T   T
 -0.0112197182576536 -0.0054227288717713  0.5838550414212360   T   T   T
 -0.0113025659972748  0.3278784531664538  0.5838428800486845   T   T   T
 -0.0111790375394965  0.6611941704058896  0.5839095438048666   T   T   T
  0.3219697084602550 -0.0055484855658148  0.5838498596343559   T   T   T
  0.3223028907955416  0.3280735509214147  0.5838452368858538   T   T   T
  0.3223215123187986  0.6611394558232842  0.5838806446458010   T   T   T
  0.6553667480965522 -0.0057393481467426  0.5838606218157215   T   T   T
  0.6553791764865819  0.3277312500753375  0.5838590467517600   T   T   T
  0.6556391799458290  0.6611994110046174  0.5841090961846018   T   T   T
  0.6551339282207472  0.6629724834079289  0.6328315223810500   T   T   T
 -0.0109327883755197  0.6630611470846325  0.6325607985675780   T   T   T
  0.3218990803533919  0.9963566869572575  0.6325126911847730   T   T   T
 -0.0114386651911070  0.3296912145158795  0.6325059984815639   T   T   T
  0.3223578283082446  0.3299305261732132  0.6324939687173231   T   T   T
  0.6551216946554234  0.3290373396797003  0.6325096363126793   T   T   T
  0.3224623274363949  0.6630114586169239  0.6325306066393337   T   T   T
 -0.0109543273108854 -0.0030470644175263  0.6325061004225908   T   T   T
  0.6554106307278907 -0.0039821205675699  0.6325087378980719   T   T   T
