Ag Pd  C  O 
 1.0000000000000000
     8.5013114179517117    0.0000000000000000    0.0000000000000005
     4.2506557089758541    7.3623516534288900    0.0000000000000005
     0.0000000000000000    0.0000000000000000   48.5890419431158733
 Ag  Pd  C   O  
  26  10   1   1
Selective dynamics
Direct
  0.6666666666666671  0.6666666666666666  0.4761904911784334   F   F   F
  0.3333332867041333  0.3333332867041335  0.4761904711944905   F   F   F
  0.3333332867041333  0.9999999533708002  0.4761904711944905   F   F   F
  0.9999999533707997  0.3333332867041335  0.4761904711944905   F   F   F
  0.9999999533707999  0.9999999533708002  0.4761904711944905   F   F   F
  0.6666667599250664  0.3333332867041335  0.4761904711944905   F   F   F
  0.6666667599250664  0.9999999533708002  0.4761904711944905   F   F   F
  0.4444444444444445  0.4444444444444445  0.5238095387974809   F   F   F
  0.6683977742119432  0.6675324937743877  0.6200616554391583   T   T   T
  0.2235209205368031  0.2217929803469704  0.5711308978365509   T   T   T
  0.2234501436885508  0.8878178277359305  0.5718667515160141   T   T   T
  0.8876973550191093  0.2222020568836621  0.5708883744194736   T   T   T
  0.8853934550945850  0.8918270967207428  0.5713094036011950   T   T   T
  0.5544307458131142  0.5566284618640953  0.5718756674235246   T   T   T
  0.1111110644819112  0.7777777311485777  0.5238095188135381   F   F   F
  0.7777777311485781  0.7777777311485777  0.5238095188135381   F   F   F
  0.3321304434788081  0.3347622909859189  0.6199329098661226   T   T   T
  0.3334854419949531  1.0004822402774904  0.6199344054375201   T   T   T
  0.9997068430822378  0.3349436120247916  0.6205053397366171   T   T   T
  0.9995885334489218  0.9986706092406008  0.6204577248927975   T   T   T
  0.2246373990330858  0.5551041923155744  0.5717656062604960   T   T   T
  0.8882863456413318  0.5555675687440337  0.5711433659863149   T   T   T
  0.4444445377028442  0.1111110644819113  0.5238095188135381   F   F   F
  0.4444445377028442  0.7777777311485780  0.5238095188135381   F   F   F
  0.6673913260947932  0.3319657296085602  0.6198246695399585   T   T   T
  0.6671535304926832  0.9990117157735985  0.6195041185758897   T   T   T
  0.3333332867041338  0.6666667599250664  0.4761904711944905   F   F   F
  0.9999999533708005  0.6666667599250664  0.4761904711944905   F   F   F
  0.5560418735432214  0.2220511651209411  0.5716138827578282   T   T   T
  0.5544226052078153  0.8891755865404706  0.5717567645715101   T   T   T
  0.1111110644819112  0.4444445377028443  0.5238095188135381   F   F   F
  0.1111110644819112  1.1111112043695111  0.5238095188135381   F   F   F
  0.7777777311485784  0.4444445377028443  0.5238095188135381   F   F   F
  0.7777777311485777  1.1111112043695111  0.5238095188135381   F   F   F
  0.3318817994228536  0.6671090560515173  0.6212866458983327   T   T   T
  0.9987048628119150  0.6667381171713594  0.6177518954833059   T   T   T
  0.3340562823125854  0.6654742726531570  0.6601160543601350   T   T   T
  0.3325522956774515  0.6669416843297981  0.6839593939653189   T   T   T
