 H Pd  O 
 1.0000000000000000
     8.2582115393440390    0.0000000000000000    0.0000000000000006
    -4.1291057696720213    7.1518209828977302    0.0000000000000006
     0.0000000000000000    0.0000000000000000   40.4568089187138042
 H   Pd  O  
   1  36   1
Selective dynamics
Direct
  0.6731649834798429  0.6669489985291509  0.6644297973373411   T   T   T
  0.0000003242213467  0.0000001621106736  0.4166666666666669   F   F   F
  0.0000003242213467  0.3333334954440070  0.4166666666666669   F   F   F
  0.0000003242213466  0.6666668287773403  0.4166666666666669   F   F   F
  0.3333336575546800  0.0000001621106736  0.4166666666666669   F   F   F
  0.3333336575546800  0.3333334954440070  0.4166666666666669   F   F   F
  0.3333336575546799  0.6666668287773403  0.4166666666666669   F   F   F
  0.6666669908880133  0.0000001621106736  0.4166666666666669   F   F   F
  0.6666669908880132  0.3333334954440070  0.4166666666666669   F   F   F
  0.6666669908880132  0.6666668287773403  0.4166666666666669   F   F   F
  0.1111114353324573  0.2222223843328956  0.4722222222222223   F   F   F
  0.1111114353324573  0.5555557176662289  0.4722222222222223   F   F   F
  0.1111114353324574  0.8888890509995623  0.4722222222222223   F   F   F
  0.4444447686657906  0.2222223843328956  0.4722222222222223   F   F   F
  0.4444447686657906  0.5555557176662289  0.4722222222222223   F   F   F
  0.4444447686657906  0.8888890509995623  0.4722222222222223   F   F   F
  0.7777781019991239  0.2222223843328956  0.4722222222222223   F   F   F
  0.7777781019991239  0.5555557176662289  0.4722222222222223   F   F   F
  0.7777781019991239  0.8888890509995623  0.4722222222222223   F   F   F
  0.2241074978472842  0.1108338398982230  0.5274934273348122   T   T   T
  0.2240768557837009  0.4443238059527033  0.5275916813873858   T   T   T
  0.2240751676498665  0.7779117962482187  0.5274882968478849   T   T   T
  0.5570352479476982  0.1108727161064388  0.5274836860673288   T   T   T
  0.5589638278433530  0.4474139299435844  0.5287245088894296   T   T   T
  0.5588717233697432  0.7761721232872273  0.5287153258193459   T   T   T
  0.8906789035513452  0.1109313569480142  0.5275875706480431   T   T   T
  0.8906707506404106  0.4443166687717328  0.5275870890435888   T   T   T
  0.8875212484683699  0.7760313488493495  0.5287116869151995   T   T   T
  0.0044987586944490  0.0011012830132752  0.5835680269126721   T   T   T
  0.0032581365986329  0.3330631659729280  0.5838267386794915   T   T   T
  0.0046513513770478  0.6663063197020902  0.5835700336591086   T   T   T
  0.3366165177750797 -0.0002736217906550  0.5839249006042985   T   T   T
  0.3353799376631909  0.3320218891761052  0.5835789861232006   T   T   T
  0.3354315336256057  0.6662449872320850  0.5835699990731456   T   T   T
  0.6700369902628144  0.0009943436570360  0.5835675075479371   T   T   T
  0.6700127469925914  0.3317410953465906  0.5835753841519601   T   T   T
  0.6707941631012512  0.6664211721415957  0.5911122175988799   T   T   T
  0.6738197614647973  0.6670168381587841  0.6402376653539206   T   T   T
