Ag Pd  C  O 
 1.0000000000000000
     8.3348369443761747    0.0000000000000000    0.0000000000000005
     4.1674184721880891    7.2181805302308319    0.0000000000000005
     0.0000000000000000    0.0000000000000000   47.6375610737127033
 Ag  Pd  C   O  
   9  27   1   1
Selective dynamics
Direct
  0.6666666666666667  0.6666666666666667  0.4761904572003339   F   F   F
  0.4444444444444448  0.4444444444444445  0.5238095048193816   F   F   F
  0.4444444444444446  1.1111111111111112  0.5238095048193816   F   F   F
  0.9981064950534174  0.6668931377262769  0.6221885770638393   T   T   T
  0.3361117786496072  0.6643852509871375  0.6225919365595932   T   T   T
  0.2228216580169940  0.2225001179391445  0.5717089670971907   T   T   T
  0.2248670671122484  0.8858556868752550  0.5724800605845164   T   T   T
  0.8890397553294005  0.2224589969045719  0.5716564812353353   T   T   T
  0.8900472595246542  0.8873475425373228  0.5723063155353461   T   T   T
  0.3333333924137755  0.3333333924137756  0.4761904825205235   F   F   F
  0.3333333924137756  1.0000000590804423  0.4761904825205235   F   F   F
  1.0000000590804421  0.3333333924137756  0.4761904825205235   F   F   F
  1.0000000590804421  1.0000000590804423  0.4761904825205235   F   F   F
  0.6666665485057828  0.3333333924137756  0.4761904825205235   F   F   F
  0.6666665485057829  1.0000000590804423  0.4761904825205235   F   F   F
  0.3333333924137759  0.6666665485057824  0.4761904825205235   F   F   F
  1.0000000590804428  0.6666665485057824  0.4761904825205235   F   F   F
  0.5554201036251678  0.5554143358886207  0.5717450579421407   T   T   T
  0.1111111701915532  0.1111111701915532  0.5238095301395711   F   F   F
  0.1111111701915533  0.7777778368582199  0.5238095301395711   F   F   F
  0.7777778368582201  0.1111111701915532  0.5238095301395711   F   F   F
  0.7777778368582201  0.7777778368582199  0.5238095301395711   F   F   F
  0.3370320790961667  0.3291993070383439  0.6192978401593273   T   T   T
  0.3357270753190343  1.0035361262230553  0.6200607661253351   T   T   T
  1.0000510560831251  0.3335414782338074  0.6198719205993415   T   T   T
  0.9972463569944658  1.0073088800276822  0.6207535114863569   T   T   T
  0.2234970794743547  0.5549366738633839  0.5721372893039478   T   T   T
  0.8893758025220581  0.5555571428210465  0.5711366774088138   T   T   T
  0.4444443262835602  0.7777778368582199  0.5238095301395711   F   F   F
  0.6694710711652785  0.3318841439810771  0.6194508222707785   T   T   T
  0.6641396260068125  1.0024702433755608  0.6197421466010407   T   T   T
  0.5567196922255380  0.2224106165876260  0.5718729283428052   T   T   T
  0.5576855691392577  0.8871486648317259  0.5716862619854569   T   T   T
  0.1111111701915534  0.4444443262835603  0.5238095301395711   F   F   F
  0.7777778368582202  0.4444443262835603  0.5238095301395711   F   F   F
  0.6699134996872830  0.6668003208808466  0.6188455898515830   T   T   T
  0.3273844420264518  0.6855516164899033  0.6667512597631411   T   T   T
  0.3375883132807219  0.6618669371757958  0.6906302663415892   T   T   T
