Pd  C  O 
 1.0000000000000000
     8.2582115393440390    0.0000000000000000    0.0000000000000006
    -4.1291057696720213    7.1518209828977302    0.0000000000000006
     0.0000000000000000    0.0000000000000000   40.4568089187138042
 Pd  C   O  
  36   8   8
Selective dynamics
Direct
  0.0000003242213467  0.0000001621106736  0.4166666666666669   F   F   F
  0.0000003242213467  0.3333334954440070  0.4166666666666669   F   F   F
  0.0000003242213466  0.6666668287773403  0.4166666666666669   F   F   F
  0.3333336575546800  0.0000001621106736  0.4166666666666669   F   F   F
  0.3333336575546800  0.3333334954440070  0.4166666666666669   F   F   F
  0.3333336575546799  0.6666668287773403  0.4166666666666669   F   F   F
  0.6666669908880133  0.0000001621106736  0.4166666666666669   F   F   F
  0.6666669908880132  0.3333334954440070  0.4166666666666669   F   F   F
  0.6666669908880132  0.6666668287773403  0.4166666666666669   F   F   F
  0.1111114353324573  0.2222223843328956  0.4722222222222223   F   F   F
  0.1111114353324573  0.5555557176662289  0.4722222222222223   F   F   F
  0.1111114353324574  0.8888890509995623  0.4722222222222223   F   F   F
  0.4444447686657906  0.2222223843328956  0.4722222222222223   F   F   F
  0.4444447686657906  0.5555557176662289  0.4722222222222223   F   F   F
  0.4444447686657906  0.8888890509995623  0.4722222222222223   F   F   F
  0.7777781019991239  0.2222223843328956  0.4722222222222223   F   F   F
  0.7777781019991239  0.5555557176662289  0.4722222222222223   F   F   F
  0.7777781019991239  0.8888890509995623  0.4722222222222223   F   F   F
  0.2221574166528561  0.1110853552688867  0.5283100767621590   T   T   T
  0.2220923993209306  0.4441854160730948  0.5287468389120911   T   T   T
  0.2220857506407507  0.7778973700022708  0.5287462889599963   T   T   T
  0.5550298222875550  0.1100549172533641  0.5279134688709269   T   T   T
  0.5549962920015928  0.4449219347055713  0.5278950043191654   T   T   T
  0.5557868322653974  0.7779235196814438  0.5287235210402216   T   T   T
  0.8889108403497341  0.1110797960256542  0.5283105288841903   T   T   T
  0.8899411628832445  0.4449732704319115  0.5279149058913639   T   T   T
  0.8889593388442736  0.7778529053344276  0.5282898451554358   T   T   T
 -0.0000095460275491  0.0000028441057867  0.5852609862971917   T   T   T
 -0.0013111905627815  0.3333374362987468  0.5856650884411956   T   T   T
 -0.0013111279157818  0.6653718988811090  0.5856875454514386   T   T   T
  0.3346282408599762  0.0012998961170484  0.5856606508744575   T   T   T
  0.3346304976577770  0.3333362162648449  0.5856871342712433   T   T   T
  0.3333275638639310  0.6666669216903837  0.5856005243312447   T   T   T
  0.6666584193703152  0.0013167953595278  0.5856834091323559   T   T   T
  0.6666546419420187  0.3333499314912760  0.5834577983994673   T   T   T
  0.6666563598165344  0.6653857271001585  0.5855724398528976   T   T   T
  0.6668158266387486  0.6527931812557675  0.6318630738952995   T   T   T
 -0.0139029639570883  0.6528329726870619  0.6319993078390602   T   T   T
  0.3472246322122539  0.0140097273804584  0.6319634990497892   T   T   T
 -0.0139538332155752  0.3332674658949610  0.6319687794401602   T   T   T
  0.3471832128051334  0.3332259428514782  0.6319986135308679   T   T   T
  0.0000215923700342  0.0000264353225630  0.6317143952680047   T   T   T
  0.3333726025567680  0.6667021890619654  0.6319771411032694   T   T   T
  0.6668018885944575  0.0139991679192264  0.6319945102525297   T   T   T
  0.6667654650282289  0.6573084309700541  0.6604070492905617   T   T   T
 -0.0094651256294477  0.6572489988382008  0.6605443311404571   T   T   T
  0.3427889879268218  0.0095000352569742  0.6605087009653858   T   T   T
 -0.0094184582183607  0.3333472036536574  0.6605138188913378   T   T   T
  0.3428206378662894  0.3333623674619031  0.6605435930169248   T   T   T
 -0.0000013879440927  0.0000109632814913  0.6602576001584893   T   T   T
  0.3334156220046736  0.6667125520268832  0.6605162803190663   T   T   T
  0.6667575600287767  0.0095241611752132  0.6605394501758360   T   T   T
