Ag  H Pd  O 
 1.0000000000000000
     8.3348369443761747    0.0000000000000000    0.0000000000000005
     4.1674184721880891    7.2181805302308319    0.0000000000000005
     0.0000000000000000    0.0000000000000000   47.6375610737127033
 Ag  H   Pd  O  
   9   1  27   1
Selective dynamics
Direct
  0.6666666666666667  0.6666666666666667  0.4761904572003339   F   F   F
  0.4444444444444448  0.4444444444444445  0.5238095048193816   F   F   F
  0.4444444444444446  1.1111111111111112  0.5238095048193816   F   F   F
  0.9980481326663969  0.6674003352616918  0.6219443743558551   T   T   T
  0.3335260494708988  0.6665506239259997  0.6234226071199787   T   T   T
  0.2231799857413914  0.2220416225148420  0.5716617512981165   T   T   T
  0.2255061260713324  0.8850924034364923  0.5726523021884773   T   T   T
  0.8892618259044403  0.2226135269840426  0.5716169346092261   T   T   T
  0.8905338955271384  0.8873406398056201  0.5722060136109582   T   T   T
  0.4354279911834695  0.6731842582119195  0.6746001693643344   T   T   T
  0.3333333924137755  0.3333333924137756  0.4761904825205235   F   F   F
  0.3333333924137756  1.0000000590804423  0.4761904825205235   F   F   F
  1.0000000590804421  0.3333333924137756  0.4761904825205235   F   F   F
  1.0000000590804421  1.0000000590804423  0.4761904825205235   F   F   F
  0.6666665485057828  0.3333333924137756  0.4761904825205235   F   F   F
  0.6666665485057829  1.0000000590804423  0.4761904825205235   F   F   F
  0.3333333924137759  0.6666665485057824  0.4761904825205235   F   F   F
  1.0000000590804428  0.6666665485057824  0.4761904825205235   F   F   F
  0.5551673360942102  0.5553626557706814  0.5717908710725296   T   T   T
  0.1111111701915532  0.1111111701915532  0.5238095301395711   F   F   F
  0.1111111701915533  0.7777778368582199  0.5238095301395711   F   F   F
  0.7777778368582201  0.1111111701915532  0.5238095301395711   F   F   F
  0.7777778368582201  0.7777778368582199  0.5238095301395711   F   F   F
  0.3372141574511905  0.3295333270422351  0.6190787550728624   T   T   T
  0.3361315520679772  1.0031099333861571  0.6200339354283387   T   T   T
  1.0001821611265813  0.3342198710171082  0.6197953835832368   T   T   T
  0.9968344565745257  1.0082692482988256  0.6205476372060361   T   T   T
  0.2240428074098484  0.5545550920893696  0.5721324135393034   T   T   T
  0.8896267147959541  0.5556491235378562  0.5711074602972365   T   T   T
  0.4444443262835602  0.7777778368582199  0.5238095301395711   F   F   F
  0.6686412163432014  0.3334670038085775  0.6193754607617115   T   T   T
  0.6643483148580088  1.0026543532985250  0.6196058412470606   T   T   T
  0.5571393861547013  0.2222437040246422  0.5717619293582215   T   T   T
  0.5578776194559817  0.8873275336173254  0.5715957781638322   T   T   T
  0.1111111701915534  0.4444443262835603  0.5238095301395711   F   F   F
  0.7777778368582202  0.4444443262835603  0.5238095301395711   F   F   F
  0.6689142252648916  0.6669545106834230  0.6186673976683950   T   T   T
  0.3181368228623008  0.6786103723751876  0.6699146732312770   T   T   T
