Ag Pd 
 1.0000000000000000
     8.4012246744318553    0.0000000000000000    0.0000000000000006
     0.0000000000000016    9.7556249397631500    0.0778334351619916
     0.0000000000000000    0.0000000000000000   41.2743430770740716
 Ag  Pd 
  24  24
Selective dynamics
Direct
  0.1666656737849544  0.2499202219710539  0.5852002117781849   T   T   T
  0.1666656878409994  0.7499292262028073  0.5851943208016018   T   T   T
  0.4999989384528075  0.2499202376144461  0.5852002081769420   T   T   T
  0.4999989115378893  0.7499291898240601  0.5851943131318074   T   T   T
  0.8333322613174688  0.2499202005877213  0.5852001488184566   T   T   T
  0.8333322194871901  0.7499291572669142  0.5851942585347327   T   T   T
  0.1666707008336614  0.4158161438919960  0.5279371107583025   T   T   T
  0.1666707028220233  0.9158110283416458  0.5279350676622711   T   T   T
  0.5000039723209873  0.4158161909263350  0.5279371048401270   T   T   T
  0.5000039652875095  0.9158110663577477  0.5279350560558541   T   T   T
  0.8333373880886437  0.4158162354779980  0.5279370871027446   T   T   T
  0.8333373720775316  0.9158110902722668  0.5279350390202432   T   T   T
  0.1666664815226225  0.0833334535709418  0.4722222217898217   F   F   F
  0.1666664815226226  0.5833334535709418  0.4722222217898217   F   F   F
  0.4999998148559556  0.0833334535709418  0.4722222217898217   F   F   F
  0.4999998148559556  0.5833334535709418  0.4722222217898217   F   F   F
  0.8333331481892892  0.0833334535709418  0.4722222217898217   F   F   F
  0.8333331481892892  0.5833334535709418  0.4722222217898217   F   F   F
  0.1666664815226225  0.2500001202376085  0.4166666662342661   F   F   F
  0.1666664815226226  0.7500001202376085  0.4166666662342661   F   F   F
  0.4999998148559556  0.2500001202376085  0.4166666662342661   F   F   F
  0.4999998148559556  0.7500001202376085  0.4166666662342661   F   F   F
  0.8333331481892892  0.2500001202376085  0.4166666662342661   F   F   F
  0.8333331481892892  0.7500001202376085  0.4166666662342661   F   F   F
  0.3333354721383264  0.0018778368203692  0.5828859856477226   T   T   T
  0.3333355330520650  0.5018847228857405  0.5828851170326045   T   T   T
  0.6666687338491093  0.0018778421312742  0.5828859453610031   T   T   T
  0.6666687866134142  0.5018847724024151  0.5828850892546411   T   T   T
  1.0000022058958387  0.0018778520144394  0.5828859477009661   T   T   T
  1.0000022304605649  0.5018847199111417  0.5828850845203353   T   T   T
  0.3333357335136599  0.1673034799295489  0.5278294834887678   T   T   T
  0.3333358139606119  0.6673108250576134  0.5278257580971744   T   T   T
  0.6666690847565642  0.1673036168342032  0.5278294775018266   T   T   T
  0.6666690991214459  0.6673109132767413  0.5278257360863489   T   T   T
  1.0000024790816893  0.1673035572284662  0.5278294837543914   T   T   T
  1.0000025382956950  0.6673108828271677  0.5278257442087231   T   T   T
  0.3333331481892897  0.3333334587597487  0.4722222226546229   F   F   F
  0.3333331481892897  0.8333334587597487  0.4722222226546229   F   F   F
  0.6666664815226231  0.3333334587597487  0.4722222226546229   F   F   F
  0.6666664815226231  0.8333334587597487  0.4722222226546229   F   F   F
  0.9999998148559561  0.3333334587597487  0.4722222226546229   F   F   F
  0.9999998148559563  0.8333334587597487  0.4722222226546229   F   F   F
  0.3333331481892892  0.0000001254264155  0.4166666670990671   F   F   F
  0.3333331481892892  0.5000001254264155  0.4166666670990673   F   F   F
  0.6666664815226225  0.0000001254264155  0.4166666670990671   F   F   F
  0.6666664815226224  0.5000001254264155  0.4166666670990673   F   F   F
  0.9999998148559557  0.0000001254264155  0.4166666670990671   F   F   F
  0.9999998148559557  0.5000001254264155  0.4166666670990673   F   F   F
