Ag  H Pd  O 
 1.0000000000000000
     8.5013114179517117    0.0000000000000000    0.0000000000000005
     4.2506557089758541    7.3623516534288900    0.0000000000000005
     0.0000000000000000    0.0000000000000000   48.5890419431158733
 Ag  H   Pd  O  
  26   1  10   1
Selective dynamics
Direct
  0.6666666666666671  0.6666666666666666  0.4761904911784334   F   F   F
  0.3333332867041333  0.3333332867041335  0.4761904711944905   F   F   F
  0.3333332867041333  0.9999999533708002  0.4761904711944905   F   F   F
  0.9999999533707997  0.3333332867041335  0.4761904711944905   F   F   F
  0.9999999533707999  0.9999999533708002  0.4761904711944905   F   F   F
  0.6666667599250664  0.3333332867041335  0.4761904711944905   F   F   F
  0.6666667599250664  0.9999999533708002  0.4761904711944905   F   F   F
  0.4444444444444445  0.4444444444444445  0.5238095387974809   F   F   F
  0.6676210656662672  0.6676437079745799  0.6200248268237384   T   T   T
  0.2235928434932552  0.2215830503465191  0.5714191512238060   T   T   T
  0.2234383698191602  0.8882582788817811  0.5717985065834376   T   T   T
  0.8875716122014620  0.2221517624456383  0.5711612760295154   T   T   T
  0.8854702409496206  0.8919434395064094  0.5713439954987423   T   T   T
  0.5545434074410373  0.5564187963666817  0.5717247392182101   T   T   T
  0.1111110644819112  0.7777777311485777  0.5238095188135381   F   F   F
  0.7777777311485781  0.7777777311485777  0.5238095188135381   F   F   F
  0.3322109029490671  0.3361086508653422  0.6201405959760140   T   T   T
  0.3337104319054898  0.9989792034003415  0.6203200577975924   T   T   T
  0.9994488544193111  0.3349048100934719  0.6205015917380737   T   T   T
  1.0005761191632854  0.9979074875363472  0.6207219674828403   T   T   T
  0.2244553441890321  0.5547539481123570  0.5715356672147117   T   T   T
  0.8878539104175921  0.5557398283545611  0.5711630341483793   T   T   T
  0.4444445377028442  0.1111110644819113  0.5238095188135381   F   F   F
  0.4444445377028442  0.7777777311485780  0.5238095188135381   F   F   F
  0.6658843223444053  0.3340911486850637  0.6201346245518405   T   T   T
  0.6670416623253282  0.9992832328797709  0.6195960226525685   T   T   T
  0.4243801788180993  0.6667742134153279  0.6695252224131277   T   T   T
  0.3333332867041338  0.6666667599250664  0.4761904711944905   F   F   F
  0.9999999533708005  0.6666667599250664  0.4761904711944905   F   F   F
  0.5560439962818551  0.2215489180949819  0.5716882641648852   T   T   T
  0.5543987822611304  0.8902181322144531  0.5717639976587743   T   T   T
  0.1111110644819112  0.4444445377028443  0.5238095188135381   F   F   F
  0.1111110644819112  1.1111112043695111  0.5238095188135381   F   F   F
  0.7777777311485784  0.4444445377028443  0.5238095188135381   F   F   F
  0.7777777311485777  1.1111112043695111  0.5238095188135381   F   F   F
  0.3325805337971704  0.6675791684442538  0.6200273298035910   T   T   T
  0.9995264296131877  0.6662531927900971  0.6176259531217855   T   T   T
  0.3181158622223792  0.6654031948347459  0.6617917200491810   T   T   T
