Ag  C  O 
 1.0000000000000000
     8.5983832630900725    0.0000000000000000    0.3096632092506426
     4.2936155075093092    7.4496349315025547    0.3096632092506426
     0.0000000000000000    0.0000000000000000   39.8433329235828140
 Ag  C   O  
  36   1   1
Selective dynamics
Direct
  0.1568142622098334  0.1568136546204748  0.5892134412811584   T   T   T
  0.1549345092789354  0.4900551687337478  0.5886842130135288   T   T   T
  0.1548265812249867  0.8257298621526807  0.5886518602811444   T   T   T
  0.4900543215759789  0.1549348641015000  0.5886840112717288   T   T   T
  0.4900737977128521  0.4900757145498634  0.5899759400921603   T   T   T
  0.4900799826187348  0.8258379911841642  0.5886076595856153   T   T   T
  0.8257309381424160  0.1548260191504193  0.5886515477309627   T   T   T
  0.8258380683686214  0.4900806203281818  0.5886074216655716   T   T   T
  0.8235353666356678  0.8235343171860907  0.5889048304165789   T   T   T
  0.2744582773200814  0.2744585935274696  0.5293387647040384   T   T   T
  0.2760009009553039  0.6070801546797855  0.5297629679652340   T   T   T
  0.2744415843237207  0.9413920449036949  0.5293215284709312   T   T   T
  0.6070800327024259  0.2760015979757857  0.5297629072499980   T   T   T
  0.6071280975201904  0.6071284536747578  0.5297235291554819   T   T   T
  0.6083715941488576  0.9410837821815282  0.5289882166266999   T   T   T
  0.9413924837100602  0.2744417269162251  0.5293214598322322   T   T   T
  0.9410843183814900  0.6083713276959929  0.5289882460653497   T   T   T
  0.9410333854183035  0.9410324357188495  0.5289877439150330   T   T   T
  0.0588233949072055  0.0588233949072054  0.4705882352941176   F   F   F
  0.0588233949072055  0.3921567282405387  0.4705882352941173   F   F   F
  0.0588233949072055  0.7254900615738720  0.4705882352941176   F   F   F
  0.3921567282405388  0.0588233949072054  0.4705882352941176   F   F   F
  0.3921567282405387  0.3921567282405387  0.4705882352941176   F   F   F
  0.3921567282405388  0.7254900615738720  0.4705882352941173   F   F   F
  0.7254900615738720  0.0588233949072054  0.4705882352941176   F   F   F
  0.7254900615738721  0.3921567282405387  0.4705882352941173   F   F   F
  0.7254900615738720  0.7254900615738720  0.4705882352941176   F   F   F
  0.1764704537307346  0.1764704537307344  0.4117647058823530   F   F   F
  0.1764704537307346  0.5098037870640678  0.4117647058823530   F   F   F
  0.1764704537307346  0.8431371203974013  0.4117647058823529   F   F   F
  0.5098037870640679  0.1764704537307344  0.4117647058823530   F   F   F
  0.5098037870640678  0.5098037870640678  0.4117647058823530   F   F   F
  0.5098037870640678  0.8431371203974013  0.4117647058823530   F   F   F
  0.8431371203974012  0.1764704537307344  0.4117647058823530   F   F   F
  0.8431371203974014  0.5098037870640678  0.4117647058823530   F   F   F
  0.8431371203974007  0.8431371203974013  0.4117647058823529   F   F   F
  0.4870377344790686  0.4870442496244704  0.6437906115654658   T   T   T
  0.4874670703378286  0.4874771850614929  0.6724679588313804   T   T   T
