Ag  C  O 
 1.0000000000000000
     8.5983832630900725    0.0000000000000000    0.3096632092506426
     4.2936155075093092    7.4496349315025547    0.3096632092506426
     0.0000000000000000    0.0000000000000000   39.8433329235828140
 Ag  C   O  
  36   1   1
Selective dynamics
Direct
  0.1568130766535920  0.1568124171050510  0.5892230686827086   T   T   T
  0.1549310462184009  0.4900528698295459  0.5886930174460023   T   T   T
  0.1548215060686766  0.8257330002812882  0.5886605104844775   T   T   T
  0.4900519264504831  0.1549314224626382  0.5886928158854625   T   T   T
  0.4900739340773045  0.4900760123128122  0.5899726276983489   T   T   T
  0.4900777026894721  0.8258427880404634  0.5886160752637420   T   T   T
  0.8257341855693575  0.1548208687342966  0.5886601940728208   T   T   T
  0.8258428909442818  0.4900783999305077  0.5886158305369602   T   T   T
  0.8235343808365424  0.8235332170611295  0.5889140947571956   T   T   T
  0.2744560050686916  0.2744563646205105  0.5293426894604293   T   T   T
  0.2759939537099194  0.6070830107028122  0.5297645455603645   T   T   T
  0.2744392961625458  0.9413946741397822  0.5293254130874125   T   T   T
  0.6070828674228987  0.2759947065036986  0.5297644791292723   T   T   T
  0.6071314478060804  0.6071318167051986  0.5297248981057989   T   T   T
  0.6083700344593101  0.9410842238742589  0.5289921044700503   T   T   T
  0.9413951392445282  0.2744394578905298  0.5293253439492062   T   T   T
  0.9410848010690227  0.6083697522244672  0.5289921409973668   T   T   T
  0.9410332235639910  0.9410321938096589  0.5289916351219536   T   T   T
  0.0588233949072055  0.0588233949072054  0.4705882352941176   F   F   F
  0.0588233949072055  0.3921567282405387  0.4705882352941173   F   F   F
  0.0588233949072055  0.7254900615738720  0.4705882352941176   F   F   F
  0.3921567282405388  0.0588233949072054  0.4705882352941176   F   F   F
  0.3921567282405387  0.3921567282405387  0.4705882352941176   F   F   F
  0.3921567282405388  0.7254900615738720  0.4705882352941173   F   F   F
  0.7254900615738720  0.0588233949072054  0.4705882352941176   F   F   F
  0.7254900615738721  0.3921567282405387  0.4705882352941173   F   F   F
  0.7254900615738720  0.7254900615738720  0.4705882352941176   F   F   F
  0.1764704537307346  0.1764704537307344  0.4117647058823530   F   F   F
  0.1764704537307346  0.5098037870640678  0.4117647058823530   F   F   F
  0.1764704537307346  0.8431371203974013  0.4117647058823529   F   F   F
  0.5098037870640679  0.1764704537307344  0.4117647058823530   F   F   F
  0.5098037870640678  0.5098037870640678  0.4117647058823530   F   F   F
  0.5098037870640678  0.8431371203974013  0.4117647058823530   F   F   F
  0.8431371203974012  0.1764704537307344  0.4117647058823530   F   F   F
  0.8431371203974014  0.5098037870640678  0.4117647058823530   F   F   F
  0.8431371203974007  0.8431371203974013  0.4117647058823529   F   F   F
  0.4870432472672768  0.4870498145386448  0.6437830471599209   T   T   T
  0.4874674314173510  0.4874775380354974  0.6724525069521546   T   T   T
