Ag9 H1 Pd27 O1
1.0
   8.3348369443761747    0.0000000000000000    0.0000000000000005
   4.1674184721880891    7.2181805302308319    0.0000000000000005
   0.0000000000000000    0.0000000000000000   47.6375610737127033
Ag H Pd O
9 1 27 1
Selective dynamics
direct
   0.6666666666666667    0.6666666666666667    0.4761904572003339 F F F Ag
   0.4444444444444448    0.4444444444444445    0.5238095048193816 F F F Ag
   0.4444444444444446    1.1111111111111112    0.5238095048193816 F F F Ag
   1.0000000590804428    0.6666665485057824    0.6190476253776664 T T T Ag
   0.3333333924137759    0.6666665485057824    0.6190476253776664 T T T Ag
   0.2222222222222222    0.2222222222222223    0.5714285524384293 T T T Ag
   0.2222222222222223    0.8888888888888890    0.5714285524384293 T T T Ag
   0.8888888888888891    0.2222222222222223    0.5714285524384293 T T T Ag
   0.8888888888888888    0.8888888888888890    0.5714285524384293 T T T Ag
   0.7506548466948493    0.6666700000000000    0.6757279651805894 T T T H
   0.3333333924137755    0.3333333924137756    0.4761904825205235 F F F Pd
   0.3333333924137756    1.0000000590804423    0.4761904825205235 F F F Pd
   1.0000000590804421    0.3333333924137756    0.4761904825205235 F F F Pd
   1.0000000590804421    1.0000000590804423    0.4761904825205235 F F F Pd
   0.6666665485057828    0.3333333924137756    0.4761904825205235 F F F Pd
   0.6666665485057829    1.0000000590804423    0.4761904825205235 F F F Pd
   0.3333333924137759    0.6666665485057824    0.4761904825205235 F F F Pd
   1.0000000590804428    0.6666665485057824    0.4761904825205235 F F F Pd
   0.5555556146359979    0.5555556146359976    0.5714285777586188 T T T Pd
   0.1111111701915532    0.1111111701915532    0.5238095301395711 F F F Pd
   0.1111111701915533    0.7777778368582199    0.5238095301395711 F F F Pd
   0.7777778368582201    0.1111111701915532    0.5238095301395711 F F F Pd
   0.7777778368582201    0.7777778368582199    0.5238095301395711 F F F Pd
   0.3333333924137755    0.3333333924137756    0.6190476253776664 T T T Pd
   0.3333333924137756    1.0000000590804423    0.6190476253776664 T T T Pd
   1.0000000590804421    0.3333333924137756    0.6190476253776664 T T T Pd
   1.0000000590804421    1.0000000590804423    0.6190476253776664 T T T Pd
   0.2222221040613382    0.5555556146359977    0.5714285777586188 T T T Pd
   0.8888887707280049    0.5555556146359977    0.5714285777586188 T T T Pd
   0.4444443262835602    0.7777778368582199    0.5238095301395711 F F F Pd
   0.6666665485057828    0.3333333924137756    0.6190476253776664 T T T Pd
   0.6666665485057829    1.0000000590804423    0.6190476253776664 T T T Pd
   0.5555556146359978    0.2222221040613380    0.5714285777586188 T T T Pd
   0.5555556146359981    0.8888887707280045    0.5714285777586188 T T T Pd
   0.1111111701915534    0.4444443262835603    0.5238095301395711 F F F Pd
   0.7777778368582202    0.4444443262835603    0.5238095301395711 F F F Pd
   0.6666666666666667    0.6666666666666667    0.6190476000574769 T T T Pd
   0.6666699999999999    0.6666700000000000    0.6610336780000000 T T T O
