Ag Pd 
 1.0000000000000000
     8.3348369443761747    0.0000000000000000    0.0000000000000005
     4.1674184721880891    7.2181805302308319    0.0000000000000005
     0.0000000000000000    0.0000000000000000   47.6375610737127033
 Ag  Pd 
   9  27
Selective dynamics
Direct
  0.6666666666666667  0.6666666666666667  0.4761904572003339   F   F   F
  0.4444444444444448  0.4444444444444445  0.5238095048193816   F   F   F
  0.4444444444444446  1.1111111111111112  0.5238095048193816   F   F   F
  0.9991412439533969  0.6672435071247479  0.6226259552404197   T   T   T
  0.3345548439005621  0.6676346430043548  0.6228384858823179   T   T   T
  0.2228407212489990  0.2217991010470364  0.5717651838533638   T   T   T
  0.2247116362719198  0.8854536937527023  0.5725659644590704   T   T   T
  0.8888727520849312  0.2222422548372905  0.5716722597378588   T   T   T
  0.8898955342063996  0.8869907041145473  0.5724328286916304   T   T   T
  0.3333333924137755  0.3333333924137756  0.4761904825205235   F   F   F
  0.3333333924137756  1.0000000590804423  0.4761904825205235   F   F   F
  1.0000000590804421  0.3333333924137756  0.4761904825205235   F   F   F
  1.0000000590804421  1.0000000590804423  0.4761904825205235   F   F   F
  0.6666665485057828  0.3333333924137756  0.4761904825205235   F   F   F
  0.6666665485057829  1.0000000590804423  0.4761904825205235   F   F   F
  0.3333333924137759  0.6666665485057824  0.4761904825205235   F   F   F
  1.0000000590804428  0.6666665485057824  0.4761904825205235   F   F   F
  0.5559262087023636  0.5545824464629626  0.5716173209639817   T   T   T
  0.1111111701915532  0.1111111701915532  0.5238095301395711   F   F   F
  0.1111111701915533  0.7777778368582199  0.5238095301395711   F   F   F
  0.7777778368582201  0.1111111701915532  0.5238095301395711   F   F   F
  0.7777778368582201  0.7777778368582199  0.5238095301395711   F   F   F
  0.3362344022837446  0.3315783877849134  0.6192504140002189   T   T   T
  0.3354141885379525  1.0025020794841197  0.6201839886469287   T   T   T
  0.9995307161278791  0.3341101150156205  0.6197955624616247   T   T   T
  0.9976921551634044  1.0064796771429707  0.6207908975160392   T   T   T
  0.2228491703982983  0.5540337499312019  0.5720739963358082   T   T   T
  0.8893562392405147  0.5557284144162535  0.5711974800699379   T   T   T
  0.4444443262835602  0.7777778368582199  0.5238095301395711   F   F   F
  0.6674425813553392  0.3340235297038393  0.6194838033535227   T   T   T
  0.6634136992082205  1.0025480371881637  0.6197055990681027   T   T   T
  0.5567727363611471  0.2222100167041267  0.5718244179358887   T   T   T
  0.5574553520004627  0.8871709878814018  0.5715966980556938   T   T   T
  0.1111111701915534  0.4444443262835603  0.5238095301395711   F   F   F
  0.7777778368582202  0.4444443262835603  0.5238095301395711   F   F   F
  0.6678261689975851  0.6669111937568020  0.6186942359806549   T   T   T
