 H Pd  O 
 1.0000000000000000
     8.2582115393440390    0.0000000000000000    0.0000000000000006
    -4.1291057696720213    7.1518209828977302    0.0000000000000006
     0.0000000000000000    0.0000000000000000   40.4568089187138042
 H   Pd  O  
   3  36   3
Selective dynamics
Direct
  0.7959567043210043  0.6673708024482196  0.6371943250588078   T   T   T
  0.1155907276884026  0.7612957994725700  0.6387710539696045   T   T   T
  0.4347657282499760  1.0224744078177301  0.6444643564745179   T   T   T
  0.0000003242213467  0.0000001621106736  0.4166666666666669   F   F   F
  0.0000003242213467  0.3333334954440070  0.4166666666666669   F   F   F
  0.0000003242213466  0.6666668287773403  0.4166666666666669   F   F   F
  0.3333336575546800  0.0000001621106736  0.4166666666666669   F   F   F
  0.3333336575546800  0.3333334954440070  0.4166666666666669   F   F   F
  0.3333336575546799  0.6666668287773403  0.4166666666666669   F   F   F
  0.6666669908880133  0.0000001621106736  0.4166666666666669   F   F   F
  0.6666669908880132  0.3333334954440070  0.4166666666666669   F   F   F
  0.6666669908880132  0.6666668287773403  0.4166666666666669   F   F   F
  0.1111114353324573  0.2222223843328956  0.4722222222222223   F   F   F
  0.1111114353324573  0.5555557176662289  0.4722222222222223   F   F   F
  0.1111114353324574  0.8888890509995623  0.4722222222222223   F   F   F
  0.4444447686657906  0.2222223843328956  0.4722222222222223   F   F   F
  0.4444447686657906  0.5555557176662289  0.4722222222222223   F   F   F
  0.4444447686657906  0.8888890509995623  0.4722222222222223   F   F   F
  0.7777781019991239  0.2222223843328956  0.4722222222222223   F   F   F
  0.7777781019991239  0.5555557176662289  0.4722222222222223   F   F   F
  0.7777781019991239  0.8888890509995623  0.4722222222222223   F   F   F
  0.2212388703170041  0.1088801268518398  0.5279538561773930   T   T   T
  0.2205435913857370  0.4425155264487156  0.5273478664059791   T   T   T
  0.2206906466660018  0.7768948415128754  0.5280031398359574   T   T   T
  0.5531472254754849  0.1089555817426078  0.5276455489404729   T   T   T
  0.5540013402199854  0.4438321429686471  0.5279133267731906   T   T   T
  0.5542804360875647  0.7754090868633021  0.5277640999066162   T   T   T
  0.8875687964687904  0.1093610422360407  0.5272350115062659   T   T   T
  0.8873249785557488  0.4427386467145019  0.5275287154373329   T   T   T
  0.8871114396406746  0.7753192407537071  0.5280679539873573   T   T   T
 -0.0055924040350135 -0.0033798552886784  0.5834811804655273   T   T   T
 -0.0051845484127699  0.3273683799088606  0.5835424593465997   T   T   T
 -0.0065894757816761  0.6594661924068638  0.5839395780026684   T   T   T
  0.3301712930983981 -0.0031143562172138  0.5851438221798282   T   T   T
  0.3265917935114250  0.3283307159583262  0.5836666777444768   T   T   T
  0.3275151039300215  0.6618781255271352  0.5833905031403196   T   T   T
  0.6631682826005652 -0.0032822109396951  0.5833286835976812   T   T   T
  0.6611021109858480  0.3270210170786534  0.5832708119935055   T   T   T
  0.6579891897596797  0.6607601237597815  0.5848259067800724   T   T   T
  0.6768210111200907  0.6708712141178536  0.6332605498555132   T   T   T
 -0.0065411474510483  0.6457881877019512  0.6331732274561560   T   T   T
  0.3111354362685437  0.9799681498702990  0.6344835984632082   T   T   T
