 H Pd  O 
 1.0000000000000000
     8.2582115393440390    0.0000000000000000    0.0000000000000006
    -4.1291057696720213    7.1518209828977302    0.0000000000000006
     0.0000000000000000    0.0000000000000000   40.4568089187138042
 H   Pd  O  
   3  36   3
Selective dynamics
Direct
  0.7958619466366166  0.6673519365609044  0.6371966677610852   T   T   T
  0.1155582810273950  0.7611099166154816  0.6387655334733003   T   T   T
  0.4348428708982410  1.0225848588769730  0.6444727388291002   T   T   T
  0.0000003242213467  0.0000001621106736  0.4166666666666669   F   F   F
  0.0000003242213467  0.3333334954440070  0.4166666666666669   F   F   F
  0.0000003242213466  0.6666668287773403  0.4166666666666669   F   F   F
  0.3333336575546800  0.0000001621106736  0.4166666666666669   F   F   F
  0.3333336575546800  0.3333334954440070  0.4166666666666669   F   F   F
  0.3333336575546799  0.6666668287773403  0.4166666666666669   F   F   F
  0.6666669908880133  0.0000001621106736  0.4166666666666669   F   F   F
  0.6666669908880132  0.3333334954440070  0.4166666666666669   F   F   F
  0.6666669908880132  0.6666668287773403  0.4166666666666669   F   F   F
  0.1111114353324573  0.2222223843328956  0.4722222222222223   F   F   F
  0.1111114353324573  0.5555557176662289  0.4722222222222223   F   F   F
  0.1111114353324574  0.8888890509995623  0.4722222222222223   F   F   F
  0.4444447686657906  0.2222223843328956  0.4722222222222223   F   F   F
  0.4444447686657906  0.5555557176662289  0.4722222222222223   F   F   F
  0.4444447686657906  0.8888890509995623  0.4722222222222223   F   F   F
  0.7777781019991239  0.2222223843328956  0.4722222222222223   F   F   F
  0.7777781019991239  0.5555557176662289  0.4722222222222223   F   F   F
  0.7777781019991239  0.8888890509995623  0.4722222222222223   F   F   F
  0.2212418400747389  0.1088753862977268  0.5279479040439131   T   T   T
  0.2205298502698083  0.4425022690153145  0.5273386768953711   T   T   T
  0.2206835997693886  0.7768869733154272  0.5279981068157246   T   T   T
  0.5531476956261345  0.1089541832578261  0.5276390140801843   T   T   T
  0.5539984604665804  0.4438247485660930  0.5279056208601217   T   T   T
  0.5542801574620586  0.7754070949075992  0.5277576403648193   T   T   T
  0.8875705750269283  0.1093690317458026  0.5272263771474082   T   T   T
  0.8873251561326500  0.4427307724943699  0.5275220019614358   T   T   T
  0.8871165856931851  0.7753152819147963  0.5280637031096183   T   T   T
 -0.0055972670863246 -0.0033713905562390  0.5834836448925865   T   T   T
 -0.0052009562635895  0.3273589378734509  0.5835467965219306   T   T   T
 -0.0066088406753736  0.6594507807900076  0.5839445528636830   T   T   T
  0.3301602051650952 -0.0031115158287516  0.5851465116075817   T   T   T
  0.3265686798946448  0.3283181997044980  0.5836690952792180   T   T   T
  0.3274946830004220  0.6618688032778273  0.5833919342243317   T   T   T
  0.6631648972543053 -0.0032758750324845  0.5833317749802924   T   T   T
  0.6610955087494986  0.3270117930769399  0.5832714955370349   T   T   T
  0.6579734397175456  0.6607541234735536  0.5848274455560882   T   T   T
  0.6766884719975755  0.6708000280631461  0.6332617297936238   T   T   T
 -0.0066266626984601  0.6456646810210033  0.6331769062727989   T   T   T
  0.3109629972895431  0.9794788878144807  0.6344747735909548   T   T   T
