Ag  H Pd  O 
 1.0000000000000000
     8.5013114179517117    0.0000000000000000    0.0000000000000005
     4.2506557089758541    7.3623516534288900    0.0000000000000005
     0.0000000000000000    0.0000000000000000   48.5890419431158733
 Ag  H   Pd  O  
  26   1  10   1
Selective dynamics
Direct
  0.6666666666666671  0.6666666666666666  0.4761904911784334   F   F   F
  0.3333332867041333  0.3333332867041335  0.4761904711944905   F   F   F
  0.3333332867041333  0.9999999533708002  0.4761904711944905   F   F   F
  0.9999999533707997  0.3333332867041335  0.4761904711944905   F   F   F
  0.9999999533707999  0.9999999533708002  0.4761904711944905   F   F   F
  0.6666667599250664  0.3333332867041335  0.4761904711944905   F   F   F
  0.6666667599250664  0.9999999533708002  0.4761904711944905   F   F   F
  0.4444444444444445  0.4444444444444445  0.5238095387974809   F   F   F
  0.6617861125893600  0.6706233897118495  0.6213951790321040   T   T   T
  0.2233699767243356  0.2220054562897441  0.5711618534256543   T   T   T
  0.2216815163178226  0.8909524763509816  0.5713640512503180   T   T   T
  0.8873274518926871  0.2224592663203687  0.5710403773029246   T   T   T
  0.8851887004526039  0.8919602835142740  0.5713425862729844   T   T   T
  0.5567842508728424  0.5563488552441068  0.5717640862952577   T   T   T
  0.1111110644819112  0.7777777311485777  0.5238095188135381   F   F   F
  0.7777777311485781  0.7777777311485777  0.5238095188135381   F   F   F
  0.3310823266685539  0.3374519590570061  0.6200967243178420   T   T   T
  0.3298208197566562  1.0016042836433374  0.6197733108795034   T   T   T
  0.9988489151764750  0.3361956226866480  0.6204100809913011   T   T   T
  1.0003311397995138  0.9982078808521762  0.6209548034524199   T   T   T
  0.2222284882923077  0.5535589891396397  0.5711619358288225   T   T   T
  0.8859222634276501  0.5567635163580587  0.5715866559206526   T   T   T
  0.4444445377028442  0.1111110644819113  0.5238095188135381   F   F   F
  0.4444445377028442  0.7777777311485780  0.5238095188135381   F   F   F
  0.6641796559637598  0.3336178890579220  0.6196131967866706   T   T   T
  0.6666646386424618  1.0005092485216238  0.6194165515553587   T   T   T
  0.7712456431740937  0.6623493027058958  0.6715742036355415   T   T   T
  0.3333332867041338  0.6666667599250664  0.4761904711944905   F   F   F
  0.9999999533708005  0.6666667599250664  0.4761904711944905   F   F   F
  0.5557563363480881  0.2215083547719263  0.5714950853872879   T   T   T
  0.5553716644418829  0.8880696648320494  0.5720335907045410   T   T   T
  0.1111110644819112  0.4444445377028443  0.5238095188135381   F   F   F
  0.1111110644819112  1.1111112043695111  0.5238095188135381   F   F   F
  0.7777777311485784  0.4444445377028443  0.5238095188135381   F   F   F
  0.7777777311485777  1.1111112043695111  0.5238095188135381   F   F   F
  0.3269054095536283  0.6685882993609794  0.6176939011538219   T   T   T
  1.0007991412016928  0.6677801104089858  0.6179283616319435   T   T   T
  0.6576128976612646  0.6620516613580764  0.6681333347311177   T   T   T
