Ag  H  O 
 1.0000000000000000
     8.5983832630900725    0.0000000000000000    0.3096632092506426
     4.2936155075093092    7.4496349315025547    0.3096632092506426
     0.0000000000000000    0.0000000000000000   39.8433329235828140
 Ag  H   O  
  36   1   1
Selective dynamics
Direct
  0.1569862424469780  0.1564556806035220  0.5892972636071111   T   T   T
  0.1547284125142588  0.4898048469932933  0.5883383911026251   T   T   T
  0.1552396127511609  0.8252476554189727  0.5887178458258366   T   T   T
  0.4900914560655260  0.1548765451606926  0.5887155900723811   T   T   T
  0.4893637965002867  0.4896423195353840  0.5904036149103529   T   T   T
  0.4903620150947312  0.8244027336346312  0.5890468408515910   T   T   T
  0.8250820246286950  0.1556315977269608  0.5890278831536335   T   T   T
  0.8254174065669313  0.4897832216334935  0.5886237419666811   T   T   T
  0.8235431091284949  0.8233798911194080  0.5891379759950865   T   T   T
  0.2748081715644667  0.2743551692481755  0.5292075967787921   T   T   T
  0.2763304242568191  0.6069784207706354  0.5297908385746889   T   T   T
  0.2748905414369922  0.9408669386242118  0.5293414062666374   T   T   T
  0.6070871854894495  0.2761955229695801  0.5298998552644376   T   T   T
  0.6069344348468300  0.6069876090630745  0.5298575743062790   T   T   T
  0.6082961435960955  0.9408409747797083  0.5291990721425399   T   T   T
  0.9411352381890319  0.2744052609655032  0.5292889282952549   T   T   T
  0.9408541693669565  0.6084464473364669  0.5289932021383293   T   T   T
  0.9409171976801718  0.9411886555492697  0.5292082553188778   T   T   T
  0.0588233949072055  0.0588233949072054  0.4705882352941176   F   F   F
  0.0588233949072055  0.3921567282405387  0.4705882352941173   F   F   F
  0.0588233949072055  0.7254900615738720  0.4705882352941176   F   F   F
  0.3921567282405388  0.0588233949072054  0.4705882352941176   F   F   F
  0.3921567282405387  0.3921567282405387  0.4705882352941176   F   F   F
  0.3921567282405388  0.7254900615738720  0.4705882352941173   F   F   F
  0.7254900615738720  0.0588233949072054  0.4705882352941176   F   F   F
  0.7254900615738721  0.3921567282405387  0.4705882352941173   F   F   F
  0.7254900615738720  0.7254900615738720  0.4705882352941176   F   F   F
  0.1764704537307346  0.1764704537307344  0.4117647058823530   F   F   F
  0.1764704537307346  0.5098037870640678  0.4117647058823530   F   F   F
  0.1764704537307346  0.8431371203974013  0.4117647058823529   F   F   F
  0.5098037870640679  0.1764704537307344  0.4117647058823530   F   F   F
  0.5098037870640678  0.5098037870640678  0.4117647058823530   F   F   F
  0.5098037870640678  0.8431371203974013  0.4117647058823530   F   F   F
  0.8431371203974012  0.1764704537307344  0.4117647058823530   F   F   F
  0.8431371203974014  0.5098037870640678  0.4117647058823530   F   F   F
  0.8431371203974007  0.8431371203974013  0.4117647058823529   F   F   F
  0.5848164721159272  0.4885949294785213  0.6520383194055851   T   T   T
  0.4740324847656946  0.4908664373830142  0.6460857926909026   T   T   T
