Ag  H  O 
 1.0000000000000000
     8.5983832630900725    0.0000000000000000    0.3096632092506426
     4.2936155075093092    7.4496349315025547    0.3096632092506426
     0.0000000000000000    0.0000000000000000   39.8433329235828140
 Ag  H   O  
  36   1   1
Selective dynamics
Direct
  0.1569886213576000  0.1564561244691650  0.5893001159589056   T   T   T
  0.1547268461617282  0.4898051800731511  0.5883392503190629   T   T   T
  0.1552389372617687  0.8252516571653389  0.5887197266248542   T   T   T
  0.4900941398345792  0.1548731137922590  0.5887171584554953   T   T   T
  0.4893871158817568  0.4896408702680080  0.5903922928541570   T   T   T
  0.4903654432266957  0.8244096417823269  0.5890497615027120   T   T   T
  0.8250922310612531  0.1556256333443927  0.5890307362440449   T   T   T
  0.8254279628594996  0.4897830132390013  0.5886267482814378   T   T   T
  0.8235454330915855  0.8233800473885265  0.5891410579851557   T   T   T
  0.2748076070557089  0.2743544829283826  0.5292064968456668   T   T   T
  0.2763373490519763  0.6069760171186239  0.5297905680038815   T   T   T
  0.2748902467501699  0.9408687547347921  0.5293406457322146   T   T   T
  0.6070871563350946  0.2761997221612095  0.5298997785278649   T   T   T
  0.6069350406904707  0.6069867743107342  0.5298578134706414   T   T   T
  0.6082954324426053  0.9408416775456259  0.5291989486603070   T   T   T
  0.9411366495191965  0.2744048274661431  0.5292883933330953   T   T   T
  0.9408553882334113  0.6084457937073571  0.5289927743893674   T   T   T
  0.9409187028912539  0.9411892538789979  0.5292081527742751   T   T   T
  0.0588233949072055  0.0588233949072054  0.4705882352941176   F   F   F
  0.0588233949072055  0.3921567282405387  0.4705882352941173   F   F   F
  0.0588233949072055  0.7254900615738720  0.4705882352941176   F   F   F
  0.3921567282405388  0.0588233949072054  0.4705882352941176   F   F   F
  0.3921567282405387  0.3921567282405387  0.4705882352941176   F   F   F
  0.3921567282405388  0.7254900615738720  0.4705882352941173   F   F   F
  0.7254900615738720  0.0588233949072054  0.4705882352941176   F   F   F
  0.7254900615738721  0.3921567282405387  0.4705882352941173   F   F   F
  0.7254900615738720  0.7254900615738720  0.4705882352941176   F   F   F
  0.1764704537307346  0.1764704537307344  0.4117647058823530   F   F   F
  0.1764704537307346  0.5098037870640678  0.4117647058823530   F   F   F
  0.1764704537307346  0.8431371203974013  0.4117647058823529   F   F   F
  0.5098037870640679  0.1764704537307344  0.4117647058823530   F   F   F
  0.5098037870640678  0.5098037870640678  0.4117647058823530   F   F   F
  0.5098037870640678  0.8431371203974013  0.4117647058823530   F   F   F
  0.8431371203974012  0.1764704537307344  0.4117647058823530   F   F   F
  0.8431371203974014  0.5098037870640678  0.4117647058823530   F   F   F
  0.8431371203974007  0.8431371203974013  0.4117647058823529   F   F   F
  0.5847910153423849  0.4885906280943185  0.6520386909766144   T   T   T
  0.4739904515793810  0.4908709395883920  0.6460732649114789   T   T   T
