Ag  H Pd  O 
 1.0000000000000000
     8.5013114179517117    0.0000000000000000    0.0000000000000005
     4.2506557089758541    7.3623516534288900    0.0000000000000005
     0.0000000000000000    0.0000000000000000   48.5890419431158733
 Ag  H   Pd  O  
  26   1  10   1
Selective dynamics
Direct
  0.6666666666666671  0.6666666666666666  0.4761904911784334   F   F   F
  0.3333332867041333  0.3333332867041335  0.4761904711944905   F   F   F
  0.3333332867041333  0.9999999533708002  0.4761904711944905   F   F   F
  0.9999999533707997  0.3333332867041335  0.4761904711944905   F   F   F
  0.9999999533707999  0.9999999533708002  0.4761904711944905   F   F   F
  0.6666667599250664  0.3333332867041335  0.4761904711944905   F   F   F
  0.6666667599250664  0.9999999533708002  0.4761904711944905   F   F   F
  0.4444444444444445  0.4444444444444445  0.5238095387974809   F   F   F
  0.6677515413337124  0.6675907343510034  0.6200236581498193   T   T   T
  0.2236418945605884  0.2215432247119454  0.5713453540809733   T   T   T
  0.2238212672910894  0.8877647799956092  0.5718710543054834   T   T   T
  0.8876800377514857  0.2221444362571272  0.5710957283000185   T   T   T
  0.8855354453628633  0.8918304232804511  0.5712941169360690   T   T   T
  0.5543173341564602  0.5566042425333578  0.5718550658800510   T   T   T
  0.1111110644819112  0.7777777311485777  0.5238095188135381   F   F   F
  0.7777777311485781  0.7777777311485777  0.5238095188135381   F   F   F
  0.3324177601402003  0.3359378410773270  0.6199910428491384   T   T   T
  0.3339365712109160  0.9989002916253619  0.6202122480649457   T   T   T
  0.9996630370347195  0.3348902671307162  0.6205232277200760   T   T   T
  1.0006251013749345  0.9979432609521740  0.6205329819129164   T   T   T
  0.2248067225422644  0.5549177034950731  0.5715877685425335   T   T   T
  0.8880230870334843  0.5556027699204652  0.5711380092591738   T   T   T
  0.4444445377028442  0.1111110644819113  0.5238095188135381   F   F   F
  0.4444445377028442  0.7777777311485780  0.5238095188135381   F   F   F
  0.6661294513966677  0.3338687108014141  0.6200603234760500   T   T   T
  0.6672854272896833  0.9991884822221132  0.6195725000053796   T   T   T
  0.4260343406764943  0.6666873907059784  0.6699238193341377   T   T   T
  0.3333332867041338  0.6666667599250664  0.4761904711944905   F   F   F
  0.9999999533708005  0.6666667599250664  0.4761904711944905   F   F   F
  0.5562935012924587  0.2214468734370847  0.5716256805046586   T   T   T
  0.5545411873161717  0.8900206247297773  0.5717453961375714   T   T   T
  0.1111110644819112  0.4444445377028443  0.5238095188135381   F   F   F
  0.1111110644819112  1.1111112043695111  0.5238095188135381   F   F   F
  0.7777777311485784  0.4444445377028443  0.5238095188135381   F   F   F
  0.7777777311485777  1.1111112043695111  0.5238095188135381   F   F   F
  0.3319465013510947  0.6674611233420765  0.6207249454074129   T   T   T
  0.9995447005523395  0.6662591551443783  0.6175401942896970   T   T   T
  0.3180675382554378  0.6658698144030305  0.6628623930961034   T   T   T
