Ag  H Pd  O 
 1.0000000000000000
     8.5013114179517117    0.0000000000000000    0.0000000000000005
     4.2506557089758541    7.3623516534288900    0.0000000000000005
     0.0000000000000000    0.0000000000000000   48.5890419431158733
 Ag  H   Pd  O  
  26   1  10   1
Selective dynamics
Direct
  0.6666666666666671  0.6666666666666666  0.4761904911784334   F   F   F
  0.3333332867041333  0.3333332867041335  0.4761904711944905   F   F   F
  0.3333332867041333  0.9999999533708002  0.4761904711944905   F   F   F
  0.9999999533707997  0.3333332867041335  0.4761904711944905   F   F   F
  0.9999999533707999  0.9999999533708002  0.4761904711944905   F   F   F
  0.6666667599250664  0.3333332867041335  0.4761904711944905   F   F   F
  0.6666667599250664  0.9999999533708002  0.4761904711944905   F   F   F
  0.4444444444444445  0.4444444444444445  0.5238095387974809   F   F   F
  0.6682786636335317  0.6674247831290383  0.6199462204757193   T   T   T
  0.2234019899457177  0.2217677421775023  0.5713121713006415   T   T   T
  0.2239442031574030  0.8874735635456498  0.5718897354126650   T   T   T
  0.8878750989449359  0.2220066649966803  0.5710769637323901   T   T   T
  0.8855406697890620  0.8918484187533863  0.5712284891977141   T   T   T
  0.5542836481286491  0.5566763095551017  0.5718952922552768   T   T   T
  0.1111110644819112  0.7777777311485777  0.5238095188135381   F   F   F
  0.7777777311485781  0.7777777311485777  0.5238095188135381   F   F   F
  0.3324895407603620  0.3361138806757555  0.6198746530090352   T   T   T
  0.3338929646703164  0.9993391906536117  0.6200733832415724   T   T   T
  0.9997075573787967  0.3346517994507259  0.6204472790889521   T   T   T
  1.0010389786984686  0.9975671706772880  0.6203778952636055   T   T   T
  0.2252737345580949  0.5550308133620664  0.5715698847984186   T   T   T
  0.8881393610400324  0.5554556125469463  0.5710921993605429   T   T   T
  0.4444445377028442  0.1111110644819113  0.5238095188135381   F   F   F
  0.4444445377028442  0.7777777311485780  0.5238095188135381   F   F   F
  0.6665706412361245  0.3334777960722614  0.6198961373835585   T   T   T
  0.6672767723548481  0.9991988122433789  0.6195100675287790   T   T   T
  0.4258713804376181  0.6667100493125550  0.6700999623302397   T   T   T
  0.3333332867041338  0.6666667599250664  0.4761904711944905   F   F   F
  0.9999999533708005  0.6666667599250664  0.4761904711944905   F   F   F
  0.5561978159389664  0.2214628441609477  0.5715934880018173   T   T   T
  0.5546059604326000  0.8897845366141072  0.5717261136293743   T   T   T
  0.1111110644819112  0.4444445377028443  0.5238095188135381   F   F   F
  0.1111110644819112  1.1111112043695111  0.5238095188135381   F   F   F
  0.7777777311485783  0.4444445377028443  0.5238095188135381   F   F   F
  0.7777777311485777  1.1111112043695111  0.5238095188135381   F   F   F
  0.3322802139300284  0.6673686289772232  0.6207237495984743   T   T   T
  1.0001432626811479  0.6662471847579486  0.6174699951593667   T   T   T
  0.3173982043369252  0.6660523662861030  0.6632438569513952   T   T   T
