Ag Pd  C  O 
 1.0000000000000000
     8.4012246744318553    0.0000000000000000    0.0000000000000006
     0.0000000000000016    9.7556249397631500    0.0778334351619916
     0.0000000000000000    0.0000000000000000   41.2743430770740716
 Ag  Pd  C   O  
  24  24   1   1
Selective dynamics
Direct
  0.1647890182805076  0.2507395774856966  0.5849640325992378   T   T   T
  0.1660777921255990  0.7510178717567404  0.5855098014668576   T   T   T
  0.4999650750881556  0.2474021374164377  0.5856084555938441   T   T   T
  0.4999864246851172  0.7508684312881331  0.5855036751157335   T   T   T
  0.8351377780170188  0.2507383588485981  0.5849650592377758   T   T   T
  0.8338940060915799  0.7510180262388282  0.5855103813829843   T   T   T
  0.1668018613451981  0.4170747793605790  0.5280126723127919   T   T   T
  0.1667877430868528  0.9169115764613179  0.5279522928328760   T   T   T
  0.4999904604758303  0.4170644169543378  0.5282283154975898   T   T   T
  0.4999951043010734  0.9170440564269564  0.5280249961394720   T   T   T
  0.8331766579411946  0.4170735551722760  0.5280126060546889   T   T   T
  0.8332030414922287  0.9169103093233021  0.5279522223836242   T   T   T
  0.1666664815226225  0.0833334535709418  0.4722222217898217   F   F   F
  0.1666664815226226  0.5833334535709418  0.4722222217898217   F   F   F
  0.4999998148559556  0.0833334535709418  0.4722222217898217   F   F   F
  0.4999998148559556  0.5833334535709418  0.4722222217898217   F   F   F
  0.8333331481892892  0.0833334535709418  0.4722222217898217   F   F   F
  0.8333331481892892  0.5833334535709418  0.4722222217898217   F   F   F
  0.1666664815226225  0.2500001202376085  0.4166666662342661   F   F   F
  0.1666664815226226  0.7500001202376085  0.4166666662342661   F   F   F
  0.4999998148559556  0.2500001202376085  0.4166666662342661   F   F   F
  0.4999998148559556  0.7500001202376085  0.4166666662342661   F   F   F
  0.8333331481892892  0.2500001202376085  0.4166666662342661   F   F   F
  0.8333331481892892  0.7500001202376085  0.4166666662342661   F   F   F
  0.3322328253378763 -0.0001324848647013  0.5832656380083990   T   T   T
  0.3322604622933309  0.5038539941203337  0.5834321002554825   T   T   T
  0.6677326220518662 -0.0001316642260395  0.5832652024744028   T   T   T
  0.6677053820664997  0.5038543920437061  0.5834318094277635   T   T   T
  0.9999825038182817  0.0021478266121615  0.5832405954199303   T   T   T
  0.9999815790391459  0.5030645552855709  0.5832241754099995   T   T   T
  0.3340564653553939  0.1690440233305798  0.5283480275962226   T   T   T
  0.3334889399488186  0.6682507872263622  0.5281484087423770   T   T   T
  0.6659186801803866  0.1690421326475100  0.5283475871192767   T   T   T
  0.6664909852766455  0.6682508528969586  0.5281483672021922   T   T   T
  0.9999867288182658  0.1679345690328597  0.5278437412110153   T   T   T
  0.9999900423129002  0.6684758140010293  0.5280527591616417   T   T   T
  0.3333331481892897  0.3333334587597487  0.4722222226546229   F   F   F
  0.3333331481892897  0.8333334587597487  0.4722222226546229   F   F   F
  0.6666664815226231  0.3333334587597487  0.4722222226546229   F   F   F
  0.6666664815226231  0.8333334587597487  0.4722222226546229   F   F   F
  0.9999998148559561  0.3333334587597487  0.4722222226546229   F   F   F
  0.9999998148559563  0.8333334587597487  0.4722222226546229   F   F   F
  0.3333331481892892  0.0000001254264155  0.4166666670990671   F   F   F
  0.3333331481892892  0.5000001254264155  0.4166666670990673   F   F   F
  0.6666664815226225  0.0000001254264155  0.4166666670990671   F   F   F
  0.6666664815226224  0.5000001254264155  0.4166666670990673   F   F   F
  0.9999998148559557  0.0000001254264155  0.4166666670990671   F   F   F
  0.9999998148559557  0.5000001254264155  0.4166666670990673   F   F   F
  0.4999945254812263  0.2773732825617341  0.6362293978038235   T   T   T
  0.5000811784705691  0.2424964770279225  0.6629708017068684   T   T   T
