Pd 
 1.0000000000000000
     8.2582115393440390    0.0000000000000000    0.0000000000000006
    -4.1291057696720213    7.1518209828977302    0.0000000000000006
     0.0000000000000000    0.0000000000000000   40.4568089187138042
 Pd 
  36
Selective dynamics
Direct
  0.0000003242213467  0.0000001621106736  0.4166666666666669   F   F   F
  0.0000003242213467  0.3333334954440070  0.4166666666666669   F   F   F
  0.0000003242213466  0.6666668287773403  0.4166666666666669   F   F   F
  0.3333336575546800  0.0000001621106736  0.4166666666666669   F   F   F
  0.3333336575546800  0.3333334954440070  0.4166666666666669   F   F   F
  0.3333336575546799  0.6666668287773403  0.4166666666666669   F   F   F
  0.6666669908880133  0.0000001621106736  0.4166666666666669   F   F   F
  0.6666669908880132  0.3333334954440070  0.4166666666666669   F   F   F
  0.6666669908880132  0.6666668287773403  0.4166666666666669   F   F   F
  0.1111114353324573  0.2222223843328956  0.4722222222222223   F   F   F
  0.1111114353324573  0.5555557176662289  0.4722222222222223   F   F   F
  0.1111114353324574  0.8888890509995623  0.4722222222222223   F   F   F
  0.4444447686657906  0.2222223843328956  0.4722222222222223   F   F   F
  0.4444447686657906  0.5555557176662289  0.4722222222222223   F   F   F
  0.4444447686657906  0.8888890509995623  0.4722222222222223   F   F   F
  0.7777781019991239  0.2222223843328956  0.4722222222222223   F   F   F
  0.7777781019991239  0.5555557176662289  0.4722222222222223   F   F   F
  0.7777781019991239  0.8888890509995623  0.4722222222222223   F   F   F
  0.2222214726487532  0.1111107412085929  0.5274295627014360   T   T   T
  0.2222211766004642  0.4444438853349625  0.5274295409834731   T   T   T
  0.2222213277670356  0.7777769749107794  0.5274295449781695   T   T   T
  0.5555551039859649  0.1111107978514661  0.5274295633437996   T   T   T
  0.5555548678960928  0.4444438855977723  0.5274295119704534   T   T   T
  0.5555547344664679  0.7777773011089975  0.5274295410773863   T   T   T
  0.8888882987256030  0.1111110277961037  0.5274295725659708   T   T   T
  0.8888883662363508  0.4444438512539338  0.5274295447512923   T   T   T
  0.8888882720845597  0.7777772194345680  0.5274295601652536   T   T   T
  0.0000014095865438  0.0000015423255470  0.5836644514087918   T   T   T
  0.0000004255077684  0.3333339028585488  0.5836643681256212   T   T   T
  0.0000012178026192  0.6666674824845374  0.5836642260264370   T   T   T
  0.3333340335201642  0.0000009707824627  0.5836643677982951   T   T   T
  0.3333332051784967  0.3333331641317306  0.5836640980219722   T   T   T
  0.3333332606482638  0.6666675170032274  0.5836640061980175   T   T   T
  0.6666683566330424  0.0000022057361680  0.5836642157749172   T   T   T
  0.6666682218412464  0.3333337743167853  0.5836642048406491   T   T   T
  0.6666684297433926  0.6666679253692841  0.5836639541641002   T   T   T
