Ag  H Pd  O 
 1.0000000000000000
     8.3348369443761747    0.0000000000000000    0.0000000000000005
     4.1674184721880891    7.2181805302308319    0.0000000000000005
     0.0000000000000000    0.0000000000000000   47.6375610737127033
 Ag  H   Pd  O  
   9   1  27   1
Selective dynamics
Direct
  0.6666666666666667  0.6666666666666667  0.4761904572003339   F   F   F
  0.4444444444444448  0.4444444444444445  0.5238095048193816   F   F   F
  0.4444444444444446  1.1111111111111112  0.5238095048193816   F   F   F
  0.9992359681869750  0.6695638005576829  0.6219271462987560   T   T   T
  0.3320664976787311  0.6697485725211203  0.6219722307807802   T   T   T
  0.2230886905657352  0.2235861176933920  0.5717665797336264   T   T   T
  0.2246414035450914  0.8873874664985669  0.5722938448003712   T   T   T
  0.8888185451756335  0.2235701055845334  0.5716766465682062   T   T   T
  0.8894468401276309  0.8885562967943453  0.5722338111990269   T   T   T
  0.7602084669534486  0.6688581499397058  0.6731804225863429   T   T   T
  0.3333333924137755  0.3333333924137756  0.4761904825205235   F   F   F
  0.3333333924137756  1.0000000590804423  0.4761904825205235   F   F   F
  1.0000000590804421  0.3333333924137756  0.4761904825205235   F   F   F
  1.0000000590804421  1.0000000590804423  0.4761904825205235   F   F   F
  0.6666665485057828  0.3333333924137756  0.4761904825205235   F   F   F
  0.6666665485057829  1.0000000590804423  0.4761904825205235   F   F   F
  0.3333333924137759  0.6666665485057824  0.4761904825205235   F   F   F
  1.0000000590804428  0.6666665485057824  0.4761904825205235   F   F   F
  0.5570011950125382  0.5561885489654345  0.5719775652266182   T   T   T
  0.1111111701915532  0.1111111701915532  0.5238095301395711   F   F   F
  0.1111111701915533  0.7777778368582199  0.5238095301395711   F   F   F
  0.7777778368582201  0.1111111701915532  0.5238095301395711   F   F   F
  0.7777778368582201  0.7777778368582199  0.5238095301395711   F   F   F
  0.3352515286229563  0.3336284778228121  0.6196557758618899   T   T   T
  0.3321960828504346  1.0066383945916286  0.6201218146910651   T   T   T
  1.0003712470921007  0.3346121117884852  0.6198352623560401   T   T   T
  0.9973514563286465  1.0079674529207880  0.6207677270151984   T   T   T
  0.2230488885956801  0.5550272427943056  0.5718815545173325   T   T   T
  0.8877175042698460  0.5573328364248278  0.5716860040138149   T   T   T
  0.4444443262835602  0.7777778368582199  0.5238095301395711   F   F   F
  0.6670618867652838  0.3343147173613226  0.6194325110046169   T   T   T
  0.6632662279900886  1.0063300196274059  0.6198342978393270   T   T   T
  0.5564519177642937  0.2233133743115745  0.5719097202941948   T   T   T
  0.5586409319665760  0.8862333012475286  0.5723387023828030   T   T   T
  0.1111111701915534  0.4444443262835603  0.5238095301395711   F   F   F
  0.7777778368582202  0.4444443262835603  0.5238095301395711   F   F   F
  0.6657254367538894  0.6705951364670713  0.6212210568236215   T   T   T
  0.6561401529931158  0.6598169472091382  0.6651148020361943   T   T   T
