Ag Pd 
 1.0000000000000000
     3.9290798156350379    0.0000000000000000    0.0000000000000000
     0.0000000000000000    3.9290798156350379    0.0000000000000000
     0.0000000000000000    0.0000000000000000    3.9290798156350379
 Ag  Pd 
   1   3
Direct
 -0.0000002378809482 -0.0000002378809482 -0.0000002378809482
 -0.0000002378809482  0.5000000279810412  0.5000000279810412
  0.5000000279810412 -0.0000002378809482  0.5000000279810412
  0.5000000279810412  0.5000000279810412 -0.0000002378809482
