Ag1 Pd3
1.0
   3.9290798156350379    0.0000000000000000    0.0000000000000000
   0.0000000000000000    3.9290798156350379    0.0000000000000000
   0.0000000000000000    0.0000000000000000    3.9290798156350379
Ag Pd
1 3
direct
  -0.0000002378809482   -0.0000002378809482   -0.0000002378809482 Ag
  -0.0000002378809482    0.5000000279810412    0.5000000279810412 Pd
   0.5000000279810412   -0.0000002378809482    0.5000000279810412 Pd
   0.5000000279810412    0.5000000279810412   -0.0000002378809482 Pd
