Ag  H Pd  O 
 1.0000000000000000
     8.3348369443761747    0.0000000000000000    0.0000000000000005
     4.1674184721880891    7.2181805302308319    0.0000000000000005
     0.0000000000000000    0.0000000000000000   47.6375610737127033
 Ag  H   Pd  O  
   9   1  27   1
Selective dynamics
Direct
  0.6666666666666667  0.6666666666666667  0.4761904572003339   F   F   F
  0.4444444444444448  0.4444444444444445  0.5238095048193816   F   F   F
  0.4444444444444446  1.1111111111111112  0.5238095048193816   F   F   F
  1.0034465335359093  0.6687151802080051  0.6221767324180180   T   T   T
  0.3403097207869993  0.6690769035496258  0.6300443003030467   T   T   T
  0.2249441066126029  0.2224260461618386  0.5716015702765005   T   T   T
  0.2285499142695795  0.8828633726198830  0.5734540834950516   T   T   T
  0.8914723816850223  0.2223740325226984  0.5714705890973202   T   T   T
  0.8922510029722825  0.8873994815821559  0.5721054182398156   T   T   T
  0.3584786062477093  0.6726350075007365  0.6945721962289221   T   T   T
  0.3333333924137755  0.3333333924137756  0.4761904825205235   F   F   F
  0.3333333924137756  1.0000000590804423  0.4761904825205235   F   F   F
  1.0000000590804421  0.3333333924137756  0.4761904825205235   F   F   F
  1.0000000590804421  1.0000000590804423  0.4761904825205235   F   F   F
  0.6666665485057828  0.3333333924137756  0.4761904825205235   F   F   F
  0.6666665485057829  1.0000000590804423  0.4761904825205235   F   F   F
  0.3333333924137759  0.6666665485057824  0.4761904825205235   F   F   F
  1.0000000590804428  0.6666665485057824  0.4761904825205235   F   F   F
  0.5560189942027673  0.5559667119378519  0.5721197033141274   T   T   T
  0.1111111701915532  0.1111111701915532  0.5238095301395711   F   F   F
  0.1111111701915533  0.7777778368582199  0.5238095301395711   F   F   F
  0.7777778368582201  0.1111111701915532  0.5238095301395711   F   F   F
  0.7777778368582201  0.7777778368582199  0.5238095301395711   F   F   F
  0.3398293784433692  0.3326883122582732  0.6191601051754586   T   T   T
  0.3379627079271522  1.0054560244953858  0.6201124536085771   T   T   T
  1.0031252258968317  0.3351537360522188  0.6196617361544559   T   T   T
  1.0004586059546245  1.0080495405764109  0.6207563897534826   T   T   T
  0.2262851246907027  0.5557135960178780  0.5726841080196589   T   T   T
  0.8918788250576579  0.5558134876700828  0.5711287431524648   T   T   T
  0.4444443262835602  0.7777778368582199  0.5238095301395711   F   F   F
  0.6706738086733975  0.3348167481264075  0.6190367481605319   T   T   T
  0.6677933456969913  1.0036873749746917  0.6193806670261798   T   T   T
  0.5587061266665863  0.2228284964308673  0.5716587599838920   T   T   T
  0.5593522307133979  0.8871972596489505  0.5715465005162377   T   T   T
  0.1111111701915534  0.4444443262835603  0.5238095301395711   F   F   F
  0.7777778368582202  0.4444443262835603  0.5238095301395711   F   F   F
  0.6712212449736420  0.6691942009661850  0.6183259161731398   T   T   T
  0.3587821784095311  0.6723914893359425  0.6742371009606425   T   T   T
