Ag  H Pd  O 
 1.0000000000000000
     8.4012246744318553    0.0000000000000000    0.0000000000000006
     0.0000000000000016    9.7556249397631500    0.0778334351619916
     0.0000000000000000    0.0000000000000000   41.2743430770740716
 Ag  H   Pd  O  
  24   1  24   1
Selective dynamics
Direct
  0.1662806853300149  0.2516640728767205  0.5854852067167146   T   T   T
  0.1662066666110474  0.7524667842345258  0.5854354851884918   T   T   T
  0.4992226657155295  0.2513858800549607  0.5851113401340473   T   T   T
  0.4986714694324643  0.7533081458921304  0.5849250137379784   T   T   T
  0.8333282025017844  0.2520487317757240  0.5853651585439654   T   T   T
  0.8337800807631558  0.7525134395249736  0.5851121765762310   T   T   T
  0.1662568330465662  0.4165395800963097  0.5279892695996075   T   T   T
  0.1667028070867051  0.9164622329601719  0.5280470973432476   T   T   T
  0.5008766929167283  0.4172506974514451  0.5283405044000062   T   T   T
  0.5003579189496977  0.9164933127987877  0.5279291593506636   T   T   T
  0.8317766890632284  0.4173657343648904  0.5285116658140327   T   T   T
  0.8332035349752275  0.9162410483637259  0.5279875352501709   T   T   T
  0.1666664815226225  0.0833334535709418  0.4722222217898217   F   F   F
  0.1666664815226226  0.5833334535709418  0.4722222217898217   F   F   F
  0.4999998148559556  0.0833334535709418  0.4722222217898217   F   F   F
  0.4999998148559556  0.5833334535709418  0.4722222217898217   F   F   F
  0.8333331481892892  0.0833334535709418  0.4722222217898217   F   F   F
  0.8333331481892892  0.5833334535709418  0.4722222217898217   F   F   F
  0.1666664815226225  0.2500001202376085  0.4166666662342661   F   F   F
  0.1666664815226226  0.7500001202376085  0.4166666662342661   F   F   F
  0.4999998148559556  0.2500001202376085  0.4166666662342661   F   F   F
  0.4999998148559556  0.7500001202376085  0.4166666662342661   F   F   F
  0.8333331481892892  0.2500001202376085  0.4166666662342661   F   F   F
  0.8333331481892892  0.7500001202376085  0.4166666662342661   F   F   F
  0.7673697847607467  0.4973745710173630  0.6420547691977841   T   T   T
  0.3332317121972075  0.0038041241576570  0.5831229098640611   T   T   T
  0.3299949040661278  0.5037142401742790  0.5830174592379244   T   T   T
  0.6668701897867058  0.0036664493572297  0.5830470982706976   T   T   T
  0.6640266581154655  0.5048433216445195  0.5857054190948798   T   T   T
  0.9998495228283946  0.0038326631749624  0.5831531976585714   T   T   T
  1.0006148628232867  0.5036209044205635  0.5832628588775041   T   T   T
  0.3332935152403562  0.1682277448623818  0.5279954913470658   T   T   T
  0.3334100146091930  0.6677040257055137  0.5279741828469168   T   T   T
  0.6668032998260894  0.1680598876588397  0.5279950255022602   T   T   T
  0.6666233812804691  0.6654226661976107  0.5284517983412907   T   T   T
  0.9997875420513646  0.1682417590758251  0.5280445951311977   T   T   T
  0.9998119379671433  0.6676423374368463  0.5280492214633015   T   T   T
  0.3333331481892897  0.3333334587597487  0.4722222226546229   F   F   F
  0.3333331481892897  0.8333334587597487  0.4722222226546229   F   F   F
  0.6666664815226231  0.3333334587597487  0.4722222226546229   F   F   F
  0.6666664815226231  0.8333334587597487  0.4722222226546229   F   F   F
  0.9999998148559561  0.3333334587597487  0.4722222226546229   F   F   F
  0.9999998148559563  0.8333334587597487  0.4722222226546229   F   F   F
  0.3333331481892892  0.0000001254264155  0.4166666670990671   F   F   F
  0.3333331481892892  0.5000001254264155  0.4166666670990673   F   F   F
  0.6666664815226225  0.0000001254264155  0.4166666670990671   F   F   F
  0.6666664815226224  0.5000001254264155  0.4166666670990673   F   F   F
  0.9999998148559557  0.0000001254264155  0.4166666670990671   F   F   F
  0.9999998148559557  0.5000001254264155  0.4166666670990673   F   F   F
  0.6544267792920297  0.4916283603545654  0.6358714953545815   T   T   T
