Ag Pd  C  O 
 1.0000000000000000
     8.5013114179517117    0.0000000000000000    0.0000000000000005
     4.2506557089758541    7.3623516534288900    0.0000000000000005
     0.0000000000000000    0.0000000000000000   48.5890419431158733
 Ag  Pd  C   O  
  26  10   1   1
Selective dynamics
Direct
  0.6666666666666671  0.6666666666666666  0.4761904911784334   F   F   F
  0.3333332867041333  0.3333332867041335  0.4761904711944905   F   F   F
  0.3333332867041333  0.9999999533708002  0.4761904711944905   F   F   F
  0.9999999533707997  0.3333332867041335  0.4761904711944905   F   F   F
  0.9999999533707999  0.9999999533708002  0.4761904711944905   F   F   F
  0.6666667599250664  0.3333332867041335  0.4761904711944905   F   F   F
  0.6666667599250664  0.9999999533708002  0.4761904711944905   F   F   F
  0.4444444444444445  0.4444444444444445  0.5238095387974809   F   F   F
  0.6648727623556876  0.6715464040534515  0.6205511590538766   T   T   T
  0.2241037678400929  0.2213404932680392  0.5711925070385756   T   T   T
  0.2222086893349098  0.8903545792462558  0.5715107674269787   T   T   T
  0.8875904389091345  0.2219028612078007  0.5711178585832040   T   T   T
  0.8855315860516404  0.8916259426504720  0.5713607886511084   T   T   T
  0.5570756698446989  0.5557543775424285  0.5716331425045439   T   T   T
  0.1111110644819112  0.7777777311485777  0.5238095188135381   F   F   F
  0.7777777311485781  0.7777777311485777  0.5238095188135381   F   F   F
  0.3317588501980515  0.3375909149547989  0.6201446605117978   T   T   T
  0.3302267824144766  1.0016244106098497  0.6199910068947003   T   T   T
  1.0005676367511203  0.3347597409130587  0.6204011379542417   T   T   T
  1.0013721213879101  0.9975025824414055  0.6214079730513833   T   T   T
  0.2231137199979809  0.5532270652524581  0.5712098197997628   T   T   T
  0.8872905419052797  0.5559083465811915  0.5713911451235897   T   T   T
  0.4444445377028442  0.1111110644819113  0.5238095188135381   F   F   F
  0.4444445377028442  0.7777777311485780  0.5238095188135381   F   F   F
  0.6648753704764976  0.3334271755620145  0.6197756421965221   T   T   T
  0.6672944229787842  1.0020547273647449  0.6194871061210374   T   T   T
  0.3333332867041338  0.6666667599250664  0.4761904711944905   F   F   F
  0.9999999533708005  0.6666667599250664  0.4761904711944905   F   F   F
  0.5559800173124489  0.2213026056883142  0.5715390137127861   T   T   T
  0.5558026361108958  0.8880028553854089  0.5720558932641029   T   T   T
  0.1111110644819112  0.4444445377028443  0.5238095188135381   F   F   F
  0.1111110644819112  1.1111112043695111  0.5238095188135381   F   F   F
  0.7777777311485784  0.4444445377028443  0.5238095188135381   F   F   F
  0.7777777311485777  1.1111112043695111  0.5238095188135381   F   F   F
  0.3287058591914033  0.6683702035842370  0.6179417263423943   T   T   T
  1.0024998317311715  0.6677022449099318  0.6178504106244010   T   T   T
  0.6622747132091652  0.6630671251670656  0.6638487655147833   T   T   T
  0.6694289223561652  0.6657750709769307  0.6874815675517313   T   T   T
