Ag  C  O 
 1.0000000000000000
     8.5983832630900725    0.0000000000000000    0.3096632092506426
     4.2936155075093092    7.4496349315025547    0.3096632092506426
     0.0000000000000000    0.0000000000000000   39.8433329235828140
 Ag  C   O  
  36   1   1
Selective dynamics
Direct
  0.1567880733476983  0.1567877030644801  0.5892949891881200   T   T   T
  0.1547746931151757  0.4900591398872214  0.5887051715765271   T   T   T
  0.1546167670544334  0.8258757134220903  0.5886668253698361   T   T   T
  0.4900591951182933  0.1547752227534070  0.5887051601815969   T   T   T
  0.4901238226034320  0.4901238943120672  0.5896871309471545   T   T   T
  0.4900949561038830  0.8260363999154849  0.5886146419945190   T   T   T
  0.8258750191372503  0.1546167801152299  0.5886668627331703   T   T   T
  0.8260363639563381  0.4900951220975438  0.5886146869115135   T   T   T
  0.8235156736939517  0.8235157651534709  0.5889569062388587   T   T   T
  0.2744453553058824  0.2744454236306615  0.5293203625699456   T   T   T
  0.2759739019269872  0.6070895624862104  0.5297397249672370   T   T   T
  0.2744304836658095  0.9413803111714787  0.5293023464376868   T   T   T
  0.6070898232295356  0.2759732162311676  0.5297399357846863   T   T   T
  0.6071565724390906  0.6071570320390548  0.5296951332747626   T   T   T
  0.6084189395930513  0.9410742493610588  0.5289304651303179   T   T   T
  0.9413808324575040  0.2744298515904061  0.5293024436536132   T   T   T
  0.9410738646070459  0.6084189262179067  0.5289304555311654   T   T   T
  0.9410047539709586  0.9410048248026642  0.5289287514413653   T   T   T
  0.0588233949072055  0.0588233949072054  0.4705882352941176   F   F   F
  0.0588233949072055  0.3921567282405387  0.4705882352941173   F   F   F
  0.0588233949072055  0.7254900615738720  0.4705882352941176   F   F   F
  0.3921567282405388  0.0588233949072054  0.4705882352941176   F   F   F
  0.3921567282405387  0.3921567282405387  0.4705882352941176   F   F   F
  0.3921567282405388  0.7254900615738720  0.4705882352941173   F   F   F
  0.7254900615738720  0.0588233949072054  0.4705882352941176   F   F   F
  0.7254900615738721  0.3921567282405387  0.4705882352941173   F   F   F
  0.7254900615738720  0.7254900615738720  0.4705882352941176   F   F   F
  0.1764704537307346  0.1764704537307344  0.4117647058823530   F   F   F
  0.1764704537307346  0.5098037870640678  0.4117647058823530   F   F   F
  0.1764704537307346  0.8431371203974013  0.4117647058823529   F   F   F
  0.5098037870640679  0.1764704537307344  0.4117647058823530   F   F   F
  0.5098037870640678  0.5098037870640678  0.4117647058823530   F   F   F
  0.5098037870640678  0.8431371203974013  0.4117647058823530   F   F   F
  0.8431371203974012  0.1764704537307344  0.4117647058823530   F   F   F
  0.8431371203974014  0.5098037870640678  0.4117647058823530   F   F   F
  0.8431371203974007  0.8431371203974013  0.4117647058823529   F   F   F
  0.4874325903668904  0.4874318001732111  0.6430611789755051   T   T   T
  0.4874835640318944  0.4874826508304193  0.6719131836202920   T   T   T
