Ag  H Pd  O 
 1.0000000000000000
     8.4012246744318553    0.0000000000000000    0.0000000000000006
     0.0000000000000016    9.7556249397631500    0.0778334351619916
     0.0000000000000000    0.0000000000000000   41.2743430770740716
 Ag  H   Pd  O  
  24   1  24   1
Selective dynamics
Direct
  0.1669198374280245  0.2504318693913388  0.5854628351779012   T   T   T
  0.1669548022604593  0.7513779225493451  0.5854062319633612   T   T   T
  0.5000155723631321  0.2504841234628895  0.5854631045603101   T   T   T
  0.4995617208520488  0.7518229876816287  0.5852078706981799   T   T   T
  0.8339700848513089  0.2508101209055051  0.5855491074097497   T   T   T
  0.8345076514362473  0.7515461755427908  0.5852934595479777   T   T   T
  0.1667703522204521  0.4161779203415036  0.5280003304474820   T   T   T
  0.1667691465250300  0.9160053652029375  0.5280253901412146   T   T   T
  0.5011859222870629  0.4166168259729421  0.5283476837375609   T   T   T
  0.5003003558326344  0.9157794150639920  0.5279742682432708   T   T   T
  0.8324027235872601  0.4167348120099062  0.5284279204581167   T   T   T
  0.8332816920946514  0.9156745252282995  0.5279943174296050   T   T   T
  0.1666664815226225  0.0833334535709418  0.4722222217898217   F   F   F
  0.1666664815226226  0.5833334535709418  0.4722222217898217   F   F   F
  0.4999998148559556  0.0833334535709418  0.4722222217898217   F   F   F
  0.4999998148559556  0.5833334535709418  0.4722222217898217   F   F   F
  0.8333331481892892  0.0833334535709418  0.4722222217898217   F   F   F
  0.8333331481892892  0.5833334535709418  0.4722222217898217   F   F   F
  0.1666664815226225  0.2500001202376085  0.4166666662342661   F   F   F
  0.1666664815226226  0.7500001202376085  0.4166666662342661   F   F   F
  0.4999998148559556  0.2500001202376085  0.4166666662342661   F   F   F
  0.4999998148559556  0.7500001202376085  0.4166666662342661   F   F   F
  0.8333331481892892  0.2500001202376085  0.4166666662342661   F   F   F
  0.8333331481892892  0.7500001202376085  0.4166666662342661   F   F   F
  0.7608040129865193  0.4981113371425153  0.6426469765506854   T   T   T
  0.3336241970808468  0.0027038569121896  0.5831253115905491   T   T   T
  0.3314249630008552  0.5025683733383751  0.5830973332353205   T   T   T
  0.6670564275419809  0.0026617107774937  0.5829970238421909   T   T   T
  0.6667675086497240  0.5035485136284761  0.5853757196663221   T   T   T
  1.0001309379081424  0.0027445821169683  0.5831350072492911   T   T   T
  1.0018616324235445  0.5024813922087775  0.5832513631210533   T   T   T
  0.3336670959948480  0.1677263064687810  0.5280712011125113   T   T   T
  0.3336770358439067  0.6670993417063068  0.5280665954837206   T   T   T
  0.6668927094116058  0.1675426557191813  0.5280802951945042   T   T   T
  0.6668243876535019  0.6653194258098530  0.5284444545623465   T   T   T
  0.9998537341810615  0.1676816504995384  0.5280756462124476   T   T   T
  0.9999490658021922  0.6671252851285283  0.5281000661656581   T   T   T
  0.3333331481892897  0.3333334587597487  0.4722222226546229   F   F   F
  0.3333331481892897  0.8333334587597487  0.4722222226546229   F   F   F
  0.6666664815226231  0.3333334587597487  0.4722222226546229   F   F   F
  0.6666664815226231  0.8333334587597487  0.4722222226546229   F   F   F
  0.9999998148559561  0.3333334587597487  0.4722222226546229   F   F   F
  0.9999998148559563  0.8333334587597487  0.4722222226546229   F   F   F
  0.3333331481892892  0.0000001254264155  0.4166666670990671   F   F   F
  0.3333331481892892  0.5000001254264155  0.4166666670990673   F   F   F
  0.6666664815226225  0.0000001254264155  0.4166666670990671   F   F   F
  0.6666664815226224  0.5000001254264155  0.4166666670990673   F   F   F
  0.9999998148559557  0.0000001254264155  0.4166666670990671   F   F   F
  0.9999998148559557  0.5000001254264155  0.4166666670990673   F   F   F
  0.6511513079044522  0.4961557750689594  0.6342221125917309   T   T   T
