Ag  H Pd  O 
 1.0000000000000000
     8.3348369443761747    0.0000000000000000    0.0000000000000005
     4.1674184721880891    7.2181805302308319    0.0000000000000005
     0.0000000000000000    0.0000000000000000   47.6375610737127033
 Ag  H   Pd  O  
   9   1  27   1
Selective dynamics
Direct
  0.6666666666666667  0.6666666666666667  0.4761904572003339   F   F   F
  0.4444444444444448  0.4444444444444445  0.5238095048193816   F   F   F
  0.4444444444444446  1.1111111111111112  0.5238095048193816   F   F   F
  1.0033806228754036  0.6686074611512195  0.6213477066793357   T   T   T
  0.3400322184686762  0.6690756778763646  0.6302572940264516   T   T   T
  0.2246353308558463  0.2223377245964474  0.5715440625406574   T   T   T
  0.2280579032773204  0.8827341683902546  0.5734325433447550   T   T   T
  0.8911787317770092  0.2221901316626340  0.5715251178728405   T   T   T
  0.8916818574170926  0.8878368313841812  0.5720336915945384   T   T   T
  0.3562094517927383  0.6718212590709794  0.6951643590138682   T   T   T
  0.3333333924137755  0.3333333924137756  0.4761904825205235   F   F   F
  0.3333333924137756  1.0000000590804423  0.4761904825205235   F   F   F
  1.0000000590804421  0.3333333924137756  0.4761904825205235   F   F   F
  1.0000000590804421  1.0000000590804423  0.4761904825205235   F   F   F
  0.6666665485057828  0.3333333924137756  0.4761904825205235   F   F   F
  0.6666665485057829  1.0000000590804423  0.4761904825205235   F   F   F
  0.3333333924137759  0.6666665485057824  0.4761904825205235   F   F   F
  1.0000000590804428  0.6666665485057824  0.4761904825205235   F   F   F
  0.5558983825242440  0.5558782248397743  0.5722156595572080   T   T   T
  0.1111111701915532  0.1111111701915532  0.5238095301395711   F   F   F
  0.1111111701915533  0.7777778368582199  0.5238095301395711   F   F   F
  0.7777778368582201  0.1111111701915532  0.5238095301395711   F   F   F
  0.7777778368582201  0.7777778368582199  0.5238095301395711   F   F   F
  0.3396554386862092  0.3324891672817931  0.6190471052002180   T   T   T
  0.3377212863954350  1.0052123418624483  0.6198642617236197   T   T   T
  1.0029477380620879  0.3350017657374982  0.6195954534580330   T   T   T
  1.0002603422135745  1.0080003889837490  0.6209178665468740   T   T   T
  0.2263528001889643  0.5552980932401277  0.5724810158922974   T   T   T
  0.8912060449688158  0.5556874768593154  0.5710762596336105   T   T   T
  0.4444443262835602  0.7777778368582199  0.5238095301395711   F   F   F
  0.6706055417208348  0.3345550612262815  0.6191415767936740   T   T   T
  0.6677836805554769  1.0035107044241807  0.6195402954657280   T   T   T
  0.5586432586506311  0.2225900786060588  0.5717210986587676   T   T   T
  0.5593201575297595  0.8868766561905008  0.5715949995780563   T   T   T
  0.1111111701915534  0.4444443262835603  0.5238095301395711   F   F   F
  0.7777778368582202  0.4444443262835603  0.5238095301395711   F   F   F
  0.6708900547201150  0.6691822184701851  0.6185323489777107   T   T   T
  0.3559171630275552  0.6716474038537712  0.6744894396223006   T   T   T
