Ag Pd  C  O 
 1.0000000000000000
     8.4012246744318553    0.0000000000000000    0.0000000000000006
     0.0000000000000016    9.7556249397631500    0.0778334351619916
     0.0000000000000000    0.0000000000000000   41.2743430770740716
 Ag  Pd  C   O  
  24  24   1   1
Selective dynamics
Direct
  0.1648855270750958  0.2506284072693819  0.5849823986510502   T   T   T
  0.1662575786750189  0.7507267898501671  0.5856557254822141   T   T   T
  0.4999801302556661  0.2484155452815862  0.5853027254531372   T   T   T
  0.4999953311101675  0.7505652499080273  0.5857183266538465   T   T   T
  0.8350722695825061  0.2506273338368671  0.5849859242233416   T   T   T
  0.8337301494592461  0.7507267601636970  0.5856567807155704   T   T   T
  0.1666610271247197  0.4164096985094683  0.5279815394406833   T   T   T
  0.1667254946243395  0.9162427270336410  0.5280202584243393   T   T   T
  0.4999992443217724  0.4163210898122967  0.5280614881992836   T   T   T
  0.5000025306485482  0.9162295746994636  0.5280447892739863   T   T   T
  0.8333366111551852  0.4164077121303263  0.5279821714367816   T   T   T
  0.8332773252454775  0.9162418894957552  0.5280205141433270   T   T   T
  0.1666664815226225  0.0833334535709418  0.4722222217898217   F   F   F
  0.1666664815226226  0.5833334535709418  0.4722222217898217   F   F   F
  0.4999998148559556  0.0833334535709418  0.4722222217898217   F   F   F
  0.4999998148559556  0.5833334535709418  0.4722222217898217   F   F   F
  0.8333331481892892  0.0833334535709418  0.4722222217898217   F   F   F
  0.8333331481892892  0.5833334535709418  0.4722222217898217   F   F   F
  0.1666664815226225  0.2500001202376085  0.4166666662342661   F   F   F
  0.1666664815226226  0.7500001202376085  0.4166666662342661   F   F   F
  0.4999998148559556  0.2500001202376085  0.4166666662342661   F   F   F
  0.4999998148559556  0.7500001202376085  0.4166666662342661   F   F   F
  0.8333331481892892  0.2500001202376085  0.4166666662342661   F   F   F
  0.8333331481892892  0.7500001202376085  0.4166666662342661   F   F   F
  0.3324083317433132  0.0000552602516402  0.5831193905006503   T   T   T
  0.3323765592277637  0.5037756664311530  0.5831257081958007   T   T   T
  0.6675853162615437  0.0000562332328537  0.5831197407525263   T   T   T
  0.6676145719700981  0.5037746678873068  0.5831259352382662   T   T   T
  0.9999950635553652  0.0021632749552318  0.5831969799364107   T   T   T
  0.9999946037244059  0.5028131980150157  0.5831908338466686   T   T   T
  0.3339168705144510  0.1680914048777198  0.5282464033754085   T   T   T
  0.3335128284831732  0.6675700019891129  0.5281810582243454   T   T   T
  0.6660705887969176  0.1680916488599588  0.5282468382789371   T   T   T
  0.6664786268094179  0.6675693332445336  0.5281811537363099   T   T   T
  0.9999917545915981  0.1671138616180860  0.5279262480821774   T   T   T
  0.9999944722896024  0.6675261235135251  0.5281610185091322   T   T   T
  0.3333331481892897  0.3333334587597487  0.4722222226546229   F   F   F
  0.3333331481892897  0.8333334587597487  0.4722222226546229   F   F   F
  0.6666664815226231  0.3333334587597487  0.4722222226546229   F   F   F
  0.6666664815226231  0.8333334587597487  0.4722222226546229   F   F   F
  0.9999998148559561  0.3333334587597487  0.4722222226546229   F   F   F
  0.9999998148559563  0.8333334587597487  0.4722222226546229   F   F   F
  0.3333331481892892  0.0000001254264155  0.4166666670990671   F   F   F
  0.3333331481892892  0.5000001254264155  0.4166666670990673   F   F   F
  0.6666664815226225  0.0000001254264155  0.4166666670990671   F   F   F
  0.6666664815226224  0.5000001254264155  0.4166666670990673   F   F   F
  0.9999998148559557  0.0000001254264155  0.4166666670990671   F   F   F
  0.9999998148559557  0.5000001254264155  0.4166666670990673   F   F   F
  0.4999915341896216  0.2664006347355845  0.6361608152321557   T   T   T
  0.5000307657628954  0.2439262183877989  0.6634483884022485   T   T   T
