Ag24 Pd24 C1 O1
1.0
   8.4012246744318553    0.0000000000000000    0.0000000000000006
   0.0000000000000016    9.7556249397631500    0.0778334351619916
   0.0000000000000000    0.0000000000000000   41.2743430770740716
Ag Pd C O
24 24 1 1
Selective dynamics
direct
   0.1666664815226225    0.2500001202376085    0.5833333329009328 T T T Ag
   0.1666664815226226    0.7500001202376085    0.5833333329009328 T T T Ag
   0.4999998148559557    0.2500001202376085    0.5833333329009328 T T T Ag
   0.4999998148559557    0.7500001202376085    0.5833333329009328 T T T Ag
   0.8333331481892892    0.2500001202376085    0.5833333329009328 T T T Ag
   0.8333331481892892    0.7500001202376085    0.5833333329009328 T T T Ag
   0.1666664815226225    0.4166667869042753    0.5277777773453771 T T T Ag
   0.1666664815226226    0.9166667869042753    0.5277777773453771 T T T Ag
   0.4999998148559558    0.4166667869042753    0.5277777773453771 T T T Ag
   0.4999998148559557    0.9166667869042753    0.5277777773453771 T T T Ag
   0.8333331481892891    0.4166667869042753    0.5277777773453771 T T T Ag
   0.8333331481892892    0.9166667869042753    0.5277777773453771 T T T Ag
   0.1666664815226225    0.0833334535709418    0.4722222217898217 F F F Ag
   0.1666664815226226    0.5833334535709418    0.4722222217898217 F F F Ag
   0.4999998148559557    0.0833334535709418    0.4722222217898217 F F F Ag
   0.4999998148559557    0.5833334535709418    0.4722222217898217 F F F Ag
   0.8333331481892892    0.0833334535709418    0.4722222217898217 F F F Ag
   0.8333331481892892    0.5833334535709418    0.4722222217898217 F F F Ag
   0.1666664815226225    0.2500001202376085    0.4166666662342661 F F F Ag
   0.1666664815226226    0.7500001202376085    0.4166666662342661 F F F Ag
   0.4999998148559557    0.2500001202376085    0.4166666662342661 F F F Ag
   0.4999998148559557    0.7500001202376085    0.4166666662342661 F F F Ag
   0.8333331481892892    0.2500001202376085    0.4166666662342661 F F F Ag
   0.8333331481892892    0.7500001202376085    0.4166666662342661 F F F Ag
   0.3333331481892892    0.0000001254264157    0.5833333337657340 T T T Pd
   0.3333331481892892    0.5000001254264158    0.5833333337657342 T T T Pd
   0.6666664815226225    0.0000001254264157    0.5833333337657340 T T T Pd
   0.6666664815226224    0.5000001254264158    0.5833333337657342 T T T Pd
   0.9999998148559557    0.0000001254264157    0.5833333337657340 T T T Pd
   0.9999998148559557    0.5000001254264158    0.5833333337657342 T T T Pd
   0.3333331481892892    0.1666667920930824    0.5277777782101785 T T T Pd
   0.3333331481892893    0.6666667920930824    0.5277777782101785 T T T Pd
   0.6666664815226225    0.1666667920930824    0.5277777782101785 T T T Pd
   0.6666664815226225    0.6666667920930824    0.5277777782101785 T T T Pd
   0.9999998148559559    0.1666667920930824    0.5277777782101785 T T T Pd
   0.9999998148559557    0.6666667920930824    0.5277777782101785 T T T Pd
   0.3333331481892897    0.3333334587597487    0.4722222226546229 F F F Pd
   0.3333331481892897    0.8333334587597487    0.4722222226546229 F F F Pd
   0.6666664815226231    0.3333334587597487    0.4722222226546229 F F F Pd
   0.6666664815226231    0.8333334587597487    0.4722222226546229 F F F Pd
   0.9999998148559561    0.3333334587597487    0.4722222226546229 F F F Pd
   0.9999998148559563    0.8333334587597487    0.4722222226546229 F F F Pd
   0.3333331481892892    0.0000001254264155    0.4166666670990672 F F F Pd
   0.3333331481892892    0.5000001254264155    0.4166666670990673 F F F Pd
   0.6666664815226225    0.0000001254264155    0.4166666670990672 F F F Pd
   0.6666664815226224    0.5000001254264155    0.4166666670990673 F F F Pd
   0.9999998148559557    0.0000001254264155    0.4166666670990672 F F F Pd
   0.9999998148559557    0.5000001254264155    0.4166666670990673 F F F Pd
   0.4999999999999999    0.2500000000000000    0.6317862560000000 T T T C
   0.4999999999999999    0.2489368720835629    0.6632838215379808 T T T O
