Pd  C  O 
 1.0000000000000000
     8.2582115393440390    0.0000000000000000    0.0000000000000006
    -4.1291057696720213    7.1518209828977302    0.0000000000000006
     0.0000000000000000    0.0000000000000000   40.4568089187138042
 Pd  C   O  
  36   1   1
Selective dynamics
Direct
  0.0000003242213467  0.0000001621106736  0.4166666666666669   F   F   F
  0.0000003242213467  0.3333334954440070  0.4166666666666669   F   F   F
  0.0000003242213466  0.6666668287773403  0.4166666666666669   F   F   F
  0.3333336575546800  0.0000001621106736  0.4166666666666669   F   F   F
  0.3333336575546800  0.3333334954440070  0.4166666666666669   F   F   F
  0.3333336575546799  0.6666668287773403  0.4166666666666669   F   F   F
  0.6666669908880133  0.0000001621106736  0.4166666666666669   F   F   F
  0.6666669908880132  0.3333334954440070  0.4166666666666669   F   F   F
  0.6666669908880132  0.6666668287773403  0.4166666666666669   F   F   F
  0.1111114353324573  0.2222223843328956  0.4722222222222223   F   F   F
  0.1111114353324573  0.5555557176662289  0.4722222222222223   F   F   F
  0.1111114353324574  0.8888890509995623  0.4722222222222223   F   F   F
  0.4444447686657906  0.2222223843328956  0.4722222222222223   F   F   F
  0.4444447686657906  0.5555557176662289  0.4722222222222223   F   F   F
  0.4444447686657906  0.8888890509995623  0.4722222222222223   F   F   F
  0.7777781019991239  0.2222223843328956  0.4722222222222223   F   F   F
  0.7777781019991239  0.5555557176662289  0.4722222222222223   F   F   F
  0.7777781019991239  0.8888890509995623  0.4722222222222223   F   F   F
  0.2222022440264300  0.1111269591050008  0.5275755278553840   T   T   T
  0.2221863335122557  0.4444244533929443  0.5276470029797841   T   T   T
  0.2222060504976226  0.7777422573320992  0.5275750372742748   T   T   T
  0.5555873007373622  0.1111292198119449  0.5275749347794195   T   T   T
  0.5564989675889527  0.4463383249179254  0.5282591296803217   T   T   T
  0.5565034367221775  0.7768314941820272  0.5282583394007021   T   T   T
  0.8889045857096038  0.1111467082917700  0.5276468050432742   T   T   T
  0.8889055539451928  0.4444276106434248  0.5276466190620004   T   T   T
  0.8869986281952735  0.7768348948983713  0.5282583625960917   T   T   T
  0.0023823895743942  0.0022473434725551  0.5837903456942088   T   T   T
 -0.0000025393236517  0.3333277675596344  0.5838228669480993   T   T   T
  0.0023655914026165  0.6667959355472949  0.5837877572398310   T   T   T
  0.3333274908188589 -0.0000023936586630  0.5839993436195452   T   T   T
  0.3310715575779567  0.3309353671781023  0.5837910149776808   T   T   T
  0.3310552940651453  0.6667991495728454  0.5837884129374272   T   T   T
  0.6665233412499709  0.0022289788740046  0.5837876150338634   T   T   T
  0.6665284460594160  0.3309201162988774  0.5837883488394737   T   T   T
  0.6666328174846520  0.6666331384100748  0.5866870052241306   T   T   T
  0.6666850422964604  0.6666847192111036  0.6322416650311523   T   T   T
  0.6667367317619149  0.6667339355209323  0.6610698277094106   T   T   T
