Pd  C  O 
 1.0000000000000000
     8.2582115393440390    0.0000000000000000    0.0000000000000006
    -4.1291057696720213    7.1518209828977302    0.0000000000000006
     0.0000000000000000    0.0000000000000000   40.4568089187138042
 Pd  C   O  
  36   1   1
Selective dynamics
Direct
  0.0000003242213467  0.0000001621106736  0.4166666666666669   F   F   F
  0.0000003242213467  0.3333334954440070  0.4166666666666669   F   F   F
  0.0000003242213466  0.6666668287773403  0.4166666666666669   F   F   F
  0.3333336575546800  0.0000001621106736  0.4166666666666669   F   F   F
  0.3333336575546800  0.3333334954440070  0.4166666666666669   F   F   F
  0.3333336575546799  0.6666668287773403  0.4166666666666669   F   F   F
  0.6666669908880133  0.0000001621106736  0.4166666666666669   F   F   F
  0.6666669908880132  0.3333334954440070  0.4166666666666669   F   F   F
  0.6666669908880132  0.6666668287773403  0.4166666666666669   F   F   F
  0.1111114353324573  0.2222223843328956  0.4722222222222223   F   F   F
  0.1111114353324573  0.5555557176662289  0.4722222222222223   F   F   F
  0.1111114353324574  0.8888890509995623  0.4722222222222223   F   F   F
  0.4444447686657906  0.2222223843328956  0.4722222222222223   F   F   F
  0.4444447686657906  0.5555557176662289  0.4722222222222223   F   F   F
  0.4444447686657906  0.8888890509995623  0.4722222222222223   F   F   F
  0.7777781019991239  0.2222223843328956  0.4722222222222223   F   F   F
  0.7777781019991239  0.5555557176662289  0.4722222222222223   F   F   F
  0.7777781019991239  0.8888890509995623  0.4722222222222223   F   F   F
  0.2221885366058301  0.1111405446882784  0.5275356792994685   T   T   T
  0.2222072476893737  0.4444352198200575  0.5276125553842937   T   T   T
  0.2221921977156343  0.7777144414869335  0.5275353674799204   T   T   T
  0.5556155062324577  0.1111432380438192  0.5275353056022192   T   T   T
  0.5565264584021551  0.4463934769687924  0.5282262583461713   T   T   T
  0.5565314551009248  0.7768042507870578  0.5282258096083082   T   T   T
  0.8888937340292681  0.1111246753752268  0.5276124969555129   T   T   T
  0.8888946856095210  0.4444379987359486  0.5276123583791822   T   T   T
  0.8869428360562750  0.7768061506571675  0.5282259450478299   T   T   T
  0.0023829255309010  0.0022621389988833  0.5837348796602522   T   T   T
  0.0000003159160653  0.3333308925172668  0.5837651308078630   T   T   T
  0.0023686815828931  0.6667841912465771  0.5837325770891706   T   T   T
  0.3333305812481683  0.0000004834475181  0.5839285811167449   T   T   T
  0.3310648966297252  0.3309435809959954  0.5837354084859442   T   T   T
  0.3310515098422784  0.6667867723480675  0.5837330573789143   T   T   T
  0.6665410507890617  0.0022467652923483  0.5837324556132604   T   T   T
  0.6665452179729939  0.3309309285761443  0.5837330198450208   T   T   T
  0.6666421457528389  0.6666424207107760  0.5867900958701207   T   T   T
  0.6666762299556883  0.6666760877426124  0.6322759380123698   T   T   T
  0.6667081829136152  0.6667064165565905  0.6611086594577389   T   T   T
