 H Pd  O 
 1.0000000000000000
     8.2582115393440390    0.0000000000000000    0.0000000000000006
    -4.1291057696720213    7.1518209828977302    0.0000000000000006
     0.0000000000000000    0.0000000000000000   40.4568089187138042
 H   Pd  O  
   1  36   1
Selective dynamics
Direct
  0.7620032103129841  0.6662819044394134  0.6439632952223653   T   T   T
  0.0000003242213467  0.0000001621106736  0.4166666666666669   F   F   F
  0.0000003242213467  0.3333334954440070  0.4166666666666669   F   F   F
  0.0000003242213466  0.6666668287773403  0.4166666666666669   F   F   F
  0.3333336575546800  0.0000001621106736  0.4166666666666669   F   F   F
  0.3333336575546800  0.3333334954440070  0.4166666666666669   F   F   F
  0.3333336575546799  0.6666668287773403  0.4166666666666669   F   F   F
  0.6666669908880133  0.0000001621106736  0.4166666666666669   F   F   F
  0.6666669908880132  0.3333334954440070  0.4166666666666669   F   F   F
  0.6666669908880132  0.6666668287773403  0.4166666666666669   F   F   F
  0.1111114353324573  0.2222223843328956  0.4722222222222223   F   F   F
  0.1111114353324573  0.5555557176662289  0.4722222222222223   F   F   F
  0.1111114353324574  0.8888890509995623  0.4722222222222223   F   F   F
  0.4444447686657906  0.2222223843328956  0.4722222222222223   F   F   F
  0.4444447686657906  0.5555557176662289  0.4722222222222223   F   F   F
  0.4444447686657906  0.8888890509995623  0.4722222222222223   F   F   F
  0.7777781019991239  0.2222223843328956  0.4722222222222223   F   F   F
  0.7777781019991239  0.5555557176662289  0.4722222222222223   F   F   F
  0.7777781019991239  0.8888890509995623  0.4722222222222223   F   F   F
  0.2224082562940487  0.1111071205405894  0.5275191544452806   T   T   T
  0.2223713558045507  0.4443094454533980  0.5275217550166961   T   T   T
  0.2223504806139805  0.7779672047774014  0.5274507243841937   T   T   T
  0.5558025818381354  0.1112626444142517  0.5275345920730542   T   T   T
  0.5565874117650166  0.4458941981491819  0.5281600111077892   T   T   T
  0.5564279016689541  0.7774122674555964  0.5279724229623488   T   T   T
  0.8892915036144058  0.1113177546117478  0.5275666444315175   T   T   T
  0.8891562391060928  0.4444219606266808  0.5275814840314530   T   T   T
  0.8877343689691479  0.7771713289990044  0.5281687187346332   T   T   T
  0.0016163815009501  0.0005572339811179  0.5837944284877380   T   T   T
  0.0004942504626383  0.3330554185925131  0.5838484762204326   T   T   T
  0.0017231077301593  0.6665985348761735  0.5837479842500508   T   T   T
  0.3338263881647343 -0.0002626673049948  0.5839205794683119   T   T   T
  0.3323852964572882  0.3314280246022332  0.5837142825579932   T   T   T
  0.3321567696841577  0.6666557943060404  0.5834647036300996   T   T   T
  0.6670684506195340  0.0009310057814188  0.5836553299483851   T   T   T
  0.6672383286122722  0.3319166633017538  0.5838230406485095   T   T   T
  0.6659992560378319  0.6658087025999876  0.5861280708814016   T   T   T
  0.6496915836507484  0.6679818109842206  0.6363880550789007   T   T   T
