Ag Pd  C  O 
 1.0000000000000000
     8.3348369443761747    0.0000000000000000    0.0000000000000005
     4.1674184721880891    7.2181805302308319    0.0000000000000005
     0.0000000000000000    0.0000000000000000   47.6375610737127033
 Ag  Pd  C   O  
   9  27   1   1
Selective dynamics
Direct
  0.6666666666666667  0.6666666666666667  0.4761904572003339   F   F   F
  0.4444444444444448  0.4444444444444445  0.5238095048193816   F   F   F
  0.4444444444444446  1.1111111111111112  0.5238095048193816   F   F   F
  1.0005294332048695  0.6676378235743534  0.6221655414922700   T   T   T
  0.3313401006225725  0.6681414277168611  0.6225144011646199   T   T   T
  0.2230130418504005  0.2221668708579354  0.5717116276551548   T   T   T
  0.2250183808235171  0.8857681615106059  0.5724447269765603   T   T   T
  0.8887128172561389  0.2226749032481838  0.5716516711979865   T   T   T
  0.8895792816280005  0.8871194905865534  0.5722955286963280   T   T   T
  0.3333333924137755  0.3333333924137756  0.4761904825205235   F   F   F
  0.3333333924137756  1.0000000590804423  0.4761904825205235   F   F   F
  1.0000000590804421  0.3333333924137756  0.4761904825205235   F   F   F
  1.0000000590804421  1.0000000590804423  0.4761904825205235   F   F   F
  0.6666665485057828  0.3333333924137756  0.4761904825205235   F   F   F
  0.6666665485057829  1.0000000590804423  0.4761904825205235   F   F   F
  0.3333333924137759  0.6666665485057824  0.4761904825205235   F   F   F
  1.0000000590804428  0.6666665485057824  0.4761904825205235   F   F   F
  0.5568244659447095  0.5553805924464870  0.5720503302342138   T   T   T
  0.1111111701915532  0.1111111701915532  0.5238095301395711   F   F   F
  0.1111111701915533  0.7777778368582199  0.5238095301395711   F   F   F
  0.7777778368582201  0.1111111701915532  0.5238095301395711   F   F   F
  0.7777778368582201  0.7777778368582199  0.5238095301395711   F   F   F
  0.3355996423903383  0.3317403077324578  0.6193880017835171   T   T   T
  0.3309840698684892  1.0063622501047091  0.6204494012709418   T   T   T
  1.0018658808199887  0.3317152724911718  0.6198915462304437   T   T   T
  0.9972215300609938  1.0066554188510612  0.6207567064880989   T   T   T
  0.2229916372529134  0.5542411361932963  0.5719457378970130   T   T   T
  0.8872813196086796  0.5567462626197838  0.5716244021069341   T   T   T
  0.4444443262835602  0.7777778368582199  0.5238095301395711   F   F   F
  0.6672334393736551  0.3316924956115485  0.6196324313963373   T   T   T
  0.6630273999224900  1.0061342151036099  0.6199133740204369   T   T   T
  0.5569555185996056  0.2221103536922655  0.5718770971248973   T   T   T
  0.5584886001017200  0.8854402004648981  0.5721729017912994   T   T   T
  0.1111111701915534  0.4444443262835603  0.5238095301395711   F   F   F
  0.7777778368582202  0.4444443262835603  0.5238095301395711   F   F   F
  0.6653982294560462  0.6685665835856164  0.6206917160131770   T   T   T
  0.6662788190211474  0.6680024064327392  0.6594954344449504   T   T   T
  0.6671951152045034  0.6662793512253393  0.6839737515908721   T   T   T
