Pd  C  O 
 1.0000000000000000
     8.2582115393440390    0.0000000000000000    0.0000000000000006
    -4.1291057696720213    7.1518209828977302    0.0000000000000006
     0.0000000000000000    0.0000000000000000   40.4568089187138042
 Pd  C   O  
  36   1   1
Selective dynamics
Direct
  0.0000003242213467  0.0000001621106736  0.4166666666666669   F   F   F
  0.0000003242213467  0.3333334954440070  0.4166666666666669   F   F   F
  0.0000003242213466  0.6666668287773403  0.4166666666666669   F   F   F
  0.3333336575546800  0.0000001621106736  0.4166666666666669   F   F   F
  0.3333336575546800  0.3333334954440070  0.4166666666666669   F   F   F
  0.3333336575546799  0.6666668287773403  0.4166666666666669   F   F   F
  0.6666669908880133  0.0000001621106736  0.4166666666666669   F   F   F
  0.6666669908880132  0.3333334954440070  0.4166666666666669   F   F   F
  0.6666669908880132  0.6666668287773403  0.4166666666666669   F   F   F
  0.1111114353324573  0.2222223843328956  0.4722222222222223   F   F   F
  0.1111114353324573  0.5555557176662289  0.4722222222222223   F   F   F
  0.1111114353324574  0.8888890509995623  0.4722222222222223   F   F   F
  0.4444447686657906  0.2222223843328956  0.4722222222222223   F   F   F
  0.4444447686657906  0.5555557176662289  0.4722222222222223   F   F   F
  0.4444447686657906  0.8888890509995623  0.4722222222222223   F   F   F
  0.7777781019991239  0.2222223843328956  0.4722222222222223   F   F   F
  0.7777781019991239  0.5555557176662289  0.4722222222222223   F   F   F
  0.7777781019991239  0.8888890509995623  0.4722222222222223   F   F   F
  0.2221403167971662  0.1111880367956832  0.5275221792808394   T   T   T
  0.2221791404554961  0.4444216052867693  0.5275881492954703   T   T   T
  0.2221407604527389  0.7776186346300334  0.5275217581872315   T   T   T
  0.5557102165694257  0.1111873932776233  0.5275217403495257   T   T   T
  0.5564256978466050  0.4461922177044577  0.5282014446329656   T   T   T
  0.5564283618009984  0.7768989905607201  0.5282010130277117   T   T   T
  0.8889069385618177  0.1111491701779855  0.5275881560716201   T   T   T
  0.8889059527665253  0.4444231960091415  0.5275878543873843   T   T   T
  0.8871365729448802  0.7769029071116826  0.5282012798838293   T   T   T
  0.0023898784964862  0.0021927531242444  0.5837922566885375   T   T   T
  0.0000010870519899  0.3333326724790350  0.5837344367077686   T   T   T
  0.0023928325966976  0.6668636326308069  0.5837901187546027   T   T   T
  0.3333327607397087  0.0000014873702949  0.5838851736982508   T   T   T
  0.3311383181815368  0.3309409827674886  0.5837923643372841   T   T   T
  0.3311374744189763  0.6668651841751367  0.5837899180640721   T   T   T
  0.6664679121923872  0.0021948576746116  0.5837899780595620   T   T   T
  0.6664708227333839  0.3309401823493479  0.5837900850522764   T   T   T
  0.6666642503235908  0.6666642937628132  0.5865671651061499   T   T   T
  0.6666670793216334  0.6666670055356144  0.6322946860340042   T   T   T
  0.6666580607350440  0.6666576666101394  0.6609678112707835   T   T   T
