Pd  C  O 
 1.0000000000000000
     8.2582115393440390    0.0000000000000000    0.0000000000000006
    -4.1291057696720213    7.1518209828977302    0.0000000000000006
     0.0000000000000000    0.0000000000000000   40.4568089187138042
 Pd  C   O  
  36   1   1
Selective dynamics
Direct
  0.0000003242213467  0.0000001621106736  0.4166666666666669   F   F   F
  0.0000003242213467  0.3333334954440070  0.4166666666666669   F   F   F
  0.0000003242213466  0.6666668287773403  0.4166666666666669   F   F   F
  0.3333336575546800  0.0000001621106736  0.4166666666666669   F   F   F
  0.3333336575546800  0.3333334954440070  0.4166666666666669   F   F   F
  0.3333336575546799  0.6666668287773403  0.4166666666666669   F   F   F
  0.6666669908880133  0.0000001621106736  0.4166666666666669   F   F   F
  0.6666669908880132  0.3333334954440070  0.4166666666666669   F   F   F
  0.6666669908880132  0.6666668287773403  0.4166666666666669   F   F   F
  0.1111114353324573  0.2222223843328956  0.4722222222222223   F   F   F
  0.1111114353324573  0.5555557176662289  0.4722222222222223   F   F   F
  0.1111114353324574  0.8888890509995623  0.4722222222222223   F   F   F
  0.4444447686657906  0.2222223843328956  0.4722222222222223   F   F   F
  0.4444447686657906  0.5555557176662289  0.4722222222222223   F   F   F
  0.4444447686657906  0.8888890509995623  0.4722222222222223   F   F   F
  0.7777781019991239  0.2222223843328956  0.4722222222222223   F   F   F
  0.7777781019991239  0.5555557176662289  0.4722222222222223   F   F   F
  0.7777781019991239  0.8888890509995623  0.4722222222222223   F   F   F
  0.2221388395380482  0.1111897636209260  0.5275075892162959   T   T   T
  0.2221748149984012  0.4444195537066153  0.5275749466320631   T   T   T
  0.2221391416452562  0.7776152575918923  0.5275072403017255   T   T   T
  0.5557137976807456  0.1111892071094832  0.5275072210865076   T   T   T
  0.5564357171749044  0.4462119844101069  0.5281890715224330   T   T   T
  0.5564383691877246  0.7768892860468033  0.5281886913772728   T   T   T
  0.8889091947591681  0.1111536459609691  0.5275749571286024   T   T   T
  0.8889083091925234  0.4444210773721548  0.5275746855278436   T   T   T
  0.8871170245637112  0.7768931039945449  0.5281889375284788   T   T   T
  0.0023853925442106  0.0021954648986958  0.5837615996521474   T   T   T
  0.0000011802853087  0.3333328251340050  0.5837050808228927   T   T   T
  0.0023881501985665  0.6668565512772133  0.5837595635222961   T   T   T
  0.3333328685656631  0.0000015479217484  0.5838540538979842   T   T   T
  0.3311360312955781  0.3309458752501369  0.5837616770740083   T   T   T
  0.3311351183471151  0.6668581123889201  0.5837593459492044   T   T   T
  0.6664752796536443  0.0021973645764978  0.5837594379518489   T   T   T
  0.6664781451478101  0.3309450587287875  0.5837595043260229   T   T   T
  0.6666643451855844  0.6666643717036812  0.5866117549266024   T   T   T
  0.6666676493117276  0.6666675501173458  0.6323163927825226   T   T   T
  0.6666588924295067  0.6666586078335504  0.6609897999272318   T   T   T
