Ag  H Pd  O 
 1.0000000000000000
     8.5013114179517117    0.0000000000000000    0.0000000000000005
     4.2506557089758541    7.3623516534288900    0.0000000000000005
     0.0000000000000000    0.0000000000000000   48.5890419431158733
 Ag  H   Pd  O  
  26   1  10   1
Selective dynamics
Direct
  0.6666666666666671  0.6666666666666666  0.4761904911784334   F   F   F
  0.3333332867041333  0.3333332867041335  0.4761904711944905   F   F   F
  0.3333332867041333  0.9999999533708002  0.4761904711944905   F   F   F
  0.9999999533707997  0.3333332867041335  0.4761904711944905   F   F   F
  0.9999999533707999  0.9999999533708002  0.4761904711944905   F   F   F
  0.6666667599250664  0.3333332867041335  0.4761904711944905   F   F   F
  0.6666667599250664  0.9999999533708002  0.4761904711944905   F   F   F
  0.4444444444444445  0.4444444444444445  0.5238095387974809   F   F   F
  0.6639727080120696  0.6705561192922975  0.6212184977823145   T   T   T
  0.2237013945050990  0.2214934507652646  0.5712875716456595   T   T   T
  0.2221111380787166  0.8907093389698066  0.5713286151383209   T   T   T
  0.8875402339049158  0.2223777961208207  0.5710944805363756   T   T   T
  0.8854886594734260  0.8918071243141481  0.5712917934273811   T   T   T
  0.5573453931606676  0.5560917880113775  0.5716870867636232   T   T   T
  0.1111110644819112  0.7777777311485777  0.5238095188135381   F   F   F
  0.7777777311485781  0.7777777311485777  0.5238095188135381   F   F   F
  0.3325424530069957  0.3363666492479228  0.6200509665462777   T   T   T
  0.3315638722283615  1.0001894260051112  0.6198391803774577   T   T   T
  0.9996683489617889  0.3354513312294541  0.6204435782366170   T   T   T
  1.0015362947924267  0.9976032598562629  0.6208234982610076   T   T   T
  0.2229253305793883  0.5531143075570107  0.5710752404030490   T   T   T
  0.8865198156677689  0.5564077409744016  0.5715126686615312   T   T   T
  0.4444445377028442  0.1111110644819113  0.5238095188135381   F   F   F
  0.4444445377028442  0.7777777311485780  0.5238095188135381   F   F   F
  0.6652739706487518  0.3339444504455076  0.6197496621763884   T   T   T
  0.6678945754411445  1.0000117446551493  0.6195212265838824   T   T   T
  0.7635619231542855  0.6645756520865543  0.6713629397427238   T   T   T
  0.3333332867041338  0.6666667599250664  0.4761904711944905   F   F   F
  0.9999999533708005  0.6666667599250664  0.4761904711944905   F   F   F
  0.5562428682745569  0.2212572102435763  0.5716381122513376   T   T   T
  0.5558166018018708  0.8880769146288541  0.5719450291281272   T   T   T
  0.1111110644819112  0.4444445377028443  0.5238095188135381   F   F   F
  0.1111110644819112  1.1111112043695111  0.5238095188135381   F   F   F
  0.7777777311485784  0.4444445377028443  0.5238095188135381   F   F   F
  0.7777777311485777  1.1111112043695111  0.5238095188135381   F   F   F
  0.3283967978142967  0.6677625776715966  0.6174714097930181   T   T   T
  1.0024161984281101  0.6670518373706531  0.6176447160228402   T   T   T
  0.6527671394907245  0.6638604571341374  0.6658810257355048   T   T   T
