 H Pd  C  O 
 1.0000000000000000
     8.2582115393440390    0.0000000000000000    0.0000000000000006
    -4.1291057696720213    7.1518209828977302    0.0000000000000006
     0.0000000000000000    0.0000000000000000   40.4568089187138042
 H   Pd  C   O  
   1  36   1   2
Selective dynamics
Direct
  0.7291962618519858  0.1275778374064656  0.6427486582785201   T   T   T
  0.0000003242213467  0.0000001621106736  0.4166666666666669   F   F   F
  0.0000003242213467  0.3333334954440070  0.4166666666666669   F   F   F
  0.0000003242213466  0.6666668287773403  0.4166666666666669   F   F   F
  0.3333336575546800  0.0000001621106736  0.4166666666666669   F   F   F
  0.3333336575546800  0.3333334954440070  0.4166666666666669   F   F   F
  0.3333336575546799  0.6666668287773403  0.4166666666666669   F   F   F
  0.6666669908880133  0.0000001621106736  0.4166666666666669   F   F   F
  0.6666669908880132  0.3333334954440070  0.4166666666666669   F   F   F
  0.6666669908880132  0.6666668287773403  0.4166666666666669   F   F   F
  0.1111114353324573  0.2222223843328956  0.4722222222222223   F   F   F
  0.1111114353324573  0.5555557176662289  0.4722222222222223   F   F   F
  0.1111114353324574  0.8888890509995623  0.4722222222222223   F   F   F
  0.4444447686657906  0.2222223843328956  0.4722222222222223   F   F   F
  0.4444447686657906  0.5555557176662289  0.4722222222222223   F   F   F
  0.4444447686657906  0.8888890509995623  0.4722222222222223   F   F   F
  0.7777781019991239  0.2222223843328956  0.4722222222222223   F   F   F
  0.7777781019991239  0.5555557176662289  0.4722222222222223   F   F   F
  0.7777781019991239  0.8888890509995623  0.4722222222222223   F   F   F
  0.2221511687801160  0.1113262244557708  0.5274137201373650   T   T   T
  0.2224884352599269  0.4448104619832557  0.5273357145033427   T   T   T
  0.2223403014143773  0.7780655350064973  0.5274088158762162   T   T   T
  0.5560689746794806  0.1110655740257349  0.5278382282773558   T   T   T
  0.5559376825986185  0.4456002675353997  0.5277515724974815   T   T   T
  0.5574394227663886  0.7784518708200712  0.5285035152498619   T   T   T
  0.8879987300475305  0.1107703080345584  0.5281019582938167   T   T   T
  0.8892236066246776  0.4448764132212614  0.5274207948373948   T   T   T
  0.8879716949241303  0.7773382753485889  0.5280465835387174   T   T   T
  0.0040609489247771  0.0034813343656859  0.5838043915592230   T   T   T
  0.0029818308079706  0.3365459618929618  0.5835366099037269   T   T   T
  0.0035504178970843  0.6683433847537856  0.5837577557376213   T   T   T
  0.3331986857770067  0.0015934923765049  0.5838894249206309   T   T   T
  0.3322623083371825  0.3325636820410156  0.5837655657887322   T   T   T
  0.3318697990644613  0.6671544092420716  0.5834616625459448   T   T   T
  0.6687766821002704  0.0060503220994592  0.5855677124018389   T   T   T
  0.6670776198421059  0.3339547766962541  0.5835189507212254   T   T   T
  0.6680325587268953  0.6678565509365504  0.5857302390812866   T   T   T
  0.6667605031359908  0.6483825459099077  0.6316194146526694   T   T   T
  0.6660282723412586  0.6411960361579543  0.6600971041729308   T   T   T
  0.6417913351481647  0.0008791777647796  0.6344968769195926   T   T   T
