Ag  H Pd  O 
 1.0000000000000000
     8.5013114179517117    0.0000000000000000    0.0000000000000005
     4.2506557089758541    7.3623516534288900    0.0000000000000005
     0.0000000000000000    0.0000000000000000   48.5890419431158733
 Ag  H   Pd  O  
  26   1  10   1
Selective dynamics
Direct
  0.6666666666666671  0.6666666666666666  0.4761904911784334   F   F   F
  0.3333332867041333  0.3333332867041335  0.4761904711944905   F   F   F
  0.3333332867041333  0.9999999533708002  0.4761904711944905   F   F   F
  0.9999999533707997  0.3333332867041335  0.4761904711944905   F   F   F
  0.9999999533707999  0.9999999533708002  0.4761904711944905   F   F   F
  0.6666667599250664  0.3333332867041335  0.4761904711944905   F   F   F
  0.6666667599250664  0.9999999533708002  0.4761904711944905   F   F   F
  0.4444444444444445  0.4444444444444445  0.5238095387974809   F   F   F
  0.6612655797403006  0.6708604186729753  0.6216622942411723   T   T   T
  0.2233403437994197  0.2219577343515063  0.5712003992087408   T   T   T
  0.2217089377159303  0.8909141335666082  0.5713623152611726   T   T   T
  0.8872708823713379  0.2225500197421547  0.5710675110418906   T   T   T
  0.8851471185080031  0.8919737559970193  0.5713296870496017   T   T   T
  0.5568087021638899  0.5564425365187556  0.5717999773537730   T   T   T
  0.1111110644819112  0.7777777311485777  0.5238095188135381   F   F   F
  0.7777777311485781  0.7777777311485777  0.5238095188135381   F   F   F
  0.3310884622649284  0.3373716853737904  0.6200597733992338   T   T   T
  0.3297116644782289  1.0016587530824939  0.6197843126104006   T   T   T
  0.9984387093526479  0.3364779278653362  0.6204055430804069   T   T   T
  1.0002231117086653  0.9983590095985428  0.6208765024638107   T   T   T
  0.2222403035427630  0.5535690472899680  0.5711544216945721   T   T   T
  0.8856736360865883  0.5568829699779674  0.5716256945084728   T   T   T
  0.4444445377028442  0.1111110644819113  0.5238095188135381   F   F   F
  0.4444445377028442  0.7777777311485780  0.5238095188135381   F   F   F
  0.6641395648098881  0.3337964891389892  0.6196355949606354   T   T   T
  0.6666292580652360  1.0003561506144201  0.6194250044930343   T   T   T
  0.7716267045169294  0.6623445532237614  0.6712452233369632   T   T   T
  0.3333332867041338  0.6666667599250664  0.4761904711944905   F   F   F
  0.9999999533708005  0.6666667599250664  0.4761904711944905   F   F   F
  0.5557563301142635  0.2215095859572522  0.5715391813498246   T   T   T
  0.5554172275631825  0.8878440421321433  0.5720913617408522   T   T   T
  0.1111110644819112  0.4444445377028443  0.5238095188135381   F   F   F
  0.1111110644819112  1.1111112043695111  0.5238095188135381   F   F   F
  0.7777777311485784  0.4444445377028443  0.5238095188135381   F   F   F
  0.7777777311485777  1.1111112043695111  0.5238095188135381   F   F   F
  0.3267605518577486  0.6686580334047004  0.6176348709931808   T   T   T
  1.0006211676462804  0.6678823088667075  0.6178250485525494   T   T   T
  0.6582666471841349  0.6614337396323798  0.6678715359522244   T   T   T
