Ag  H Pd  O 
 1.0000000000000000
     8.4012246744318553    0.0000000000000000    0.0000000000000006
     0.0000000000000016    9.7556249397631500    0.0778334351619916
     0.0000000000000000    0.0000000000000000   41.2743430770740716
 Ag  H   Pd  O  
  24   1  24   1
Selective dynamics
Direct
  0.1644125675271544  0.2519083503563546  0.5847898952319200   T   T   T
  0.1657292598974683  0.7522315243298853  0.5854798072682497   T   T   T
  0.4985338120592609  0.2512691760190521  0.5865531304877748   T   T   T
  0.4996350975333423  0.7520373848756464  0.5855313342594378   T   T   T
  0.8332653149539420  0.2519030717117831  0.5849745229187387   T   T   T
  0.8331802196534384  0.7521597000797818  0.5855110055495125   T   T   T
  0.1664815502749524  0.4171513890838019  0.5279681647766363   T   T   T
  0.1664961439996314  0.9171433066006855  0.5279938663259337   T   T   T
  0.4997604311018408  0.4164053339146939  0.5283312224141629   T   T   T
  0.4998022515973217  0.9170547082816646  0.5279915421074194   T   T   T
  0.8329797523434874  0.4170846001132349  0.5280161705646025   T   T   T
  0.8329253349028752  0.9171124862593396  0.5280228488470650   T   T   T
  0.1666664815226225  0.0833334535709418  0.4722222217898217   F   F   F
  0.1666664815226226  0.5833334535709418  0.4722222217898217   F   F   F
  0.4999998148559556  0.0833334535709418  0.4722222217898217   F   F   F
  0.4999998148559556  0.5833334535709418  0.4722222217898217   F   F   F
  0.8333331481892892  0.0833334535709418  0.4722222217898217   F   F   F
  0.8333331481892892  0.5833334535709418  0.4722222217898217   F   F   F
  0.1666664815226225  0.2500001202376085  0.4166666662342661   F   F   F
  0.1666664815226226  0.7500001202376085  0.4166666662342661   F   F   F
  0.4999998148559556  0.2500001202376085  0.4166666662342661   F   F   F
  0.4999998148559556  0.7500001202376085  0.4166666662342661   F   F   F
  0.8333331481892892  0.2500001202376085  0.4166666662342661   F   F   F
  0.8333331481892892  0.7500001202376085  0.4166666662342661   F   F   F
  0.6051963755749625  0.2529077900869746  0.6471671017933907   T   T   T
  0.3322539790109247  0.0015213147745383  0.5830816308646543   T   T   T
  0.3321500064165781  0.5053681300734734  0.5830287861860429   T   T   T
  0.6665368156018899  0.0018361614181028  0.5831673396319790   T   T   T
  0.6665736749896620  0.5048658268054557  0.5831691842280790   T   T   T
  0.9993641203895735  0.0034860952284073  0.5832531820078685   T   T   T
  0.9994135819748527  0.5039526689696181  0.5832599593121821   T   T   T
  0.3340117628152525  0.1690253697588817  0.5283117262468957   T   T   T
  0.3332100151787334  0.6685341508967162  0.5280450821284685   T   T   T
  0.6653622662399136  0.1690197372536326  0.5283352697837224   T   T   T
  0.6664416321478149  0.6683908937384576  0.5280936710973441   T   T   T
  0.9995652585808038  0.1680758537463964  0.5278561592609826   T   T   T
  0.9997659919882055  0.6684647524203915  0.5280795884327532   T   T   T
  0.3333331481892897  0.3333334587597487  0.4722222226546229   F   F   F
  0.3333331481892897  0.8333334587597487  0.4722222226546229   F   F   F
  0.6666664815226231  0.3333334587597487  0.4722222226546229   F   F   F
  0.6666664815226231  0.8333334587597487  0.4722222226546229   F   F   F
  0.9999998148559561  0.3333334587597487  0.4722222226546229   F   F   F
  0.9999998148559563  0.8333334587597487  0.4722222226546229   F   F   F
  0.3333331481892892  0.0000001254264155  0.4166666670990671   F   F   F
  0.3333331481892892  0.5000001254264155  0.4166666670990673   F   F   F
  0.6666664815226225  0.0000001254264155  0.4166666670990671   F   F   F
  0.6666664815226224  0.5000001254264155  0.4166666670990673   F   F   F
  0.9999998148559557  0.0000001254264155  0.4166666670990671   F   F   F
  0.9999998148559557  0.5000001254264155  0.4166666670990673   F   F   F
  0.4928383138844726  0.2642449128681261  0.6411916311676049   T   T   T
