 H Pd  O 
 1.0000000000000000
     8.2582115393440390    0.0000000000000000    0.0000000000000006
    -4.1291057696720213    7.1518209828977302    0.0000000000000006
     0.0000000000000000    0.0000000000000000   40.4568089187138042
 H   Pd  O  
   8  36   8
Selective dynamics
Direct
  0.7864832812364557  0.7704648487433357  0.6373615968286057   T   T   T
  0.4454908894779283  1.0005908081773385  0.6384816682829051   T   T   T
  0.1178689451165260  0.4459473765957004  0.6383145123116323   T   T   T
  0.4587014810978512  0.3403919106193662  0.6378940632562258   T   T   T
  0.8009724503221303  0.3598776629852098  0.6368798758044842   T   T   T
  0.4464371484334404  0.6579249770775691  0.6379236874983810   T   T   T
  0.1129534360342380 -0.0111516784796939  0.6389374615938480   T   T   T
  0.7887165192943079  0.0824332774528608  0.6394730312748609   T   T   T
  0.0000003242213467  0.0000001621106736  0.4166666666666669   F   F   F
  0.0000003242213467  0.3333334954440070  0.4166666666666669   F   F   F
  0.0000003242213466  0.6666668287773403  0.4166666666666669   F   F   F
  0.3333336575546800  0.0000001621106736  0.4166666666666669   F   F   F
  0.3333336575546800  0.3333334954440070  0.4166666666666669   F   F   F
  0.3333336575546799  0.6666668287773403  0.4166666666666669   F   F   F
  0.6666669908880133  0.0000001621106736  0.4166666666666669   F   F   F
  0.6666669908880132  0.3333334954440070  0.4166666666666669   F   F   F
  0.6666669908880132  0.6666668287773403  0.4166666666666669   F   F   F
  0.1111114353324573  0.2222223843328956  0.4722222222222223   F   F   F
  0.1111114353324573  0.5555557176662289  0.4722222222222223   F   F   F
  0.1111114353324574  0.8888890509995623  0.4722222222222223   F   F   F
  0.4444447686657906  0.2222223843328956  0.4722222222222223   F   F   F
  0.4444447686657906  0.5555557176662289  0.4722222222222223   F   F   F
  0.4444447686657906  0.8888890509995623  0.4722222222222223   F   F   F
  0.7777781019991239  0.2222223843328956  0.4722222222222223   F   F   F
  0.7777781019991239  0.5555557176662289  0.4722222222222223   F   F   F
  0.7777781019991239  0.8888890509995623  0.4722222222222223   F   F   F
  0.2213242039857539  0.1081877674460160  0.5280301294050559   T   T   T
  0.2214998250075983  0.4407284208707901  0.5281120851548987   T   T   T
  0.2206563422759301  0.7740936027053699  0.5279026275984972   T   T   T
  0.5544436094810964  0.1079544488292468  0.5280238937139601   T   T   T
  0.5539798538169267  0.4412350452192624  0.5277519149858702   T   T   T
  0.5543043454368793  0.7750106984287894  0.5280592761889531   T   T   T
  0.8884423319798379  0.1079711749963069  0.5280758073143886   T   T   T
  0.8875329773094729  0.4408581547180896  0.5273838626520003   T   T   T
  0.8872774217857828  0.7744923991752829  0.5274771243238245   T   T   T
 -0.0111679199323440 -0.0111489745037884  0.5837775021654341   T   T   T
 -0.0101708310190020  0.3233934950495649  0.5836657089226704   T   T   T
 -0.0107955285379962  0.6564486500531870  0.5834134958426447   T   T   T
  0.3217279582866903 -0.0138450668787304  0.5836289722782494   T   T   T
  0.3211035111321013  0.3187562145884047  0.5844181729577950   T   T   T
  0.3211130766457099  0.6535560637902844  0.5839095154836674   T   T   T
  0.6561166945127135 -0.0095045232364751  0.5840629007362609   T   T   T
  0.6564823767218826  0.3237332011402218  0.5831414947887474   T   T   T
  0.6546685119000005  0.6560522520639354  0.5833324944572508   T   T   T
  0.6578819474882699  0.6602983322914310  0.6319573186700344   T   T   T
  0.3178985371018918  0.9769271309225694  0.6321093045521731   T   T   T
 -0.0138287353815805  0.3445873129093950  0.6327249457665658   T   T   T
  0.3294704871434967  0.3150682235479025  0.6325604924491884   T   T   T
  0.6720985110698271  0.3414841140769409  0.6314605458963395   T   T   T
  0.3211999233978879  0.6453948513836616  0.6326838124358317   T   T   T
 -0.0158299759783821 -0.0406877238184093  0.6325132255475415   T   T   T
  0.6568472419895843 -0.0050166529948062  0.6328922710976602   T   T   T
