Ag  H Pd  O 
 1.0000000000000000
     8.4012246744318553    0.0000000000000000    0.0000000000000006
     0.0000000000000016    9.7556249397631500    0.0778334351619916
     0.0000000000000000    0.0000000000000000   41.2743430770740716
 Ag  H   Pd  O  
  24   1  24   1
Selective dynamics
Direct
  0.1660449787727080  0.2518376610152362  0.5854555338820836   T   T   T
  0.1659460581591644  0.7526005300453427  0.5854245420308334   T   T   T
  0.4987966640771168  0.2512988484470121  0.5849313313706689   T   T   T
  0.4982406159179991  0.7535162878171296  0.5848764174420051   T   T   T
  0.8332832359429645  0.2518260155224512  0.5851950126737447   T   T   T
  0.8337463172985217  0.7529056223381678  0.5850696090680315   T   T   T
  0.1660843769046562  0.4169519037628219  0.5279967132984595   T   T   T
  0.1666253406352362  0.9167763184105077  0.5280077959103301   T   T   T
  0.5008253005545196  0.4177630575892093  0.5283792258599643   T   T   T
  0.5003266006962267  0.9168968362300123  0.5278952364019188   T   T   T
  0.8315972550083384  0.4178034799085081  0.5284775439774257   T   T   T
  0.8330506097079059  0.9166199848690233  0.5279441604910965   T   T   T
  0.1666664815226225  0.0833334535709418  0.4722222217898217   F   F   F
  0.1666664815226226  0.5833334535709418  0.4722222217898217   F   F   F
  0.4999998148559556  0.0833334535709418  0.4722222217898217   F   F   F
  0.4999998148559556  0.5833334535709418  0.4722222217898217   F   F   F
  0.8333331481892892  0.0833334535709418  0.4722222217898217   F   F   F
  0.8333331481892892  0.5833334535709418  0.4722222217898217   F   F   F
  0.1666664815226225  0.2500001202376085  0.4166666662342661   F   F   F
  0.1666664815226226  0.7500001202376085  0.4166666662342661   F   F   F
  0.4999998148559556  0.2500001202376085  0.4166666662342661   F   F   F
  0.4999998148559556  0.7500001202376085  0.4166666662342661   F   F   F
  0.8333331481892892  0.2500001202376085  0.4166666662342661   F   F   F
  0.8333331481892892  0.7500001202376085  0.4166666662342661   F   F   F
  0.7711925033997792  0.4968435286154060  0.6433058434595714   T   T   T
  0.3328459430216091  0.0037995438409064  0.5831754014639385   T   T   T
  0.3297544432839795  0.5038797192969325  0.5831298958104424   T   T   T
  0.6666077454269372  0.0034926900617526  0.5831740500988944   T   T   T
  0.6643721850658580  0.5050753408891308  0.5859641474600527   T   T   T
  0.9997810755511588  0.0037981600759746  0.5832194758007960   T   T   T
  1.0002933493644390  0.5037472282635670  0.5834012033861238   T   T   T
  0.3330544404253052  0.1688008848318329  0.5279352968962960   T   T   T
  0.3333042765621010  0.6682022553596032  0.5279706159569920   T   T   T
  0.6666713874442692  0.1686816092339081  0.5279503622481595   T   T   T
  0.6664424546790535  0.6656998328396788  0.5285247356606108   T   T   T
  0.9997660237727600  0.1687693236173991  0.5279923726729298   T   T   T
  0.9996290555936002  0.6681198441245398  0.5280373504360504   T   T   T
  0.3333331481892897  0.3333334587597487  0.4722222226546229   F   F   F
  0.3333331481892897  0.8333334587597487  0.4722222226546229   F   F   F
  0.6666664815226231  0.3333334587597487  0.4722222226546229   F   F   F
  0.6666664815226231  0.8333334587597487  0.4722222226546229   F   F   F
  0.9999998148559561  0.3333334587597487  0.4722222226546229   F   F   F
  0.9999998148559563  0.8333334587597487  0.4722222226546229   F   F   F
  0.3333331481892892  0.0000001254264155  0.4166666670990671   F   F   F
  0.3333331481892892  0.5000001254264155  0.4166666670990673   F   F   F
  0.6666664815226225  0.0000001254264155  0.4166666670990671   F   F   F
  0.6666664815226224  0.5000001254264155  0.4166666670990673   F   F   F
  0.9999998148559557  0.0000001254264155  0.4166666670990671   F   F   F
  0.9999998148559557  0.5000001254264155  0.4166666670990673   F   F   F
  0.6586748521871454  0.4879395069669534  0.6372291542452605   T   T   T
