Ag  H Pd  O 
 1.0000000000000000
     8.3348369443761747    0.0000000000000000    0.0000000000000005
     4.1674184721880891    7.2181805302308319    0.0000000000000005
     0.0000000000000000    0.0000000000000000   47.6375610737127033
 Ag  H   Pd  O  
   9   1  27   1
Selective dynamics
Direct
  0.6666666666666667  0.6666666666666667  0.4761904572003339   F   F   F
  0.4444444444444448  0.4444444444444445  0.5238095048193816   F   F   F
  0.4444444444444446  1.1111111111111112  0.5238095048193816   F   F   F
  0.9988114126140443  0.6673537580669480  0.6219748891055986   T   T   T
  0.3355279148801061  0.6666037211535624  0.6235283914491381   T   T   T
  0.2232160622650852  0.2222936180730085  0.5716964826593658   T   T   T
  0.2256005541360703  0.8851747411207684  0.5726133938532938   T   T   T
  0.8892181527657842  0.2228020364289831  0.5716192422804458   T   T   T
  0.8903666355313069  0.8874576238943735  0.5721926428525751   T   T   T
  0.4314517794879966  0.6732958436772380  0.6779574346252738   T   T   T
  0.3333333924137755  0.3333333924137756  0.4761904825205235   F   F   F
  0.3333333924137756  1.0000000590804423  0.4761904825205235   F   F   F
  1.0000000590804421  0.3333333924137756  0.4761904825205235   F   F   F
  1.0000000590804421  1.0000000590804423  0.4761904825205235   F   F   F
  0.6666665485057828  0.3333333924137756  0.4761904825205235   F   F   F
  0.6666665485057829  1.0000000590804423  0.4761904825205235   F   F   F
  0.3333333924137759  0.6666665485057824  0.4761904825205235   F   F   F
  1.0000000590804428  0.6666665485057824  0.4761904825205235   F   F   F
  0.5553857348815410  0.5554679118286053  0.5718359533842801   T   T   T
  0.1111111701915532  0.1111111701915532  0.5238095301395711   F   F   F
  0.1111111701915533  0.7777778368582199  0.5238095301395711   F   F   F
  0.7777778368582201  0.1111111701915532  0.5238095301395711   F   F   F
  0.7777778368582201  0.7777778368582199  0.5238095301395711   F   F   F
  0.3374192581611539  0.3295965538491276  0.6192207828573545   T   T   T
  0.3359820437436384  1.0035258046907112  0.6200603909992761   T   T   T
  1.0005041159238139  0.3339626980236995  0.6198752799393146   T   T   T
  0.9972942294113396  1.0078314349448116  0.6204702439491121   T   T   T
  0.2240680477301672  0.5548121137070318  0.5722121656222299   T   T   T
  0.8896862294418699  0.5557437217241595  0.5711775084470572   T   T   T
  0.4444443262835602  0.7777778368582199  0.5238095301395711   F   F   F
  0.6692669509434371  0.3329036774079635  0.6194749658194538   T   T   T
  0.6647856095454613  1.0025194198855676  0.6197070981235818   T   T   T
  0.5571156263311506  0.2224087470401014  0.5718334358969154   T   T   T
  0.5579704878473476  0.8871843679404122  0.5716658195066159   T   T   T
  0.1111111701915534  0.4444443262835603  0.5238095301395711   F   F   F
  0.7777778368582202  0.4444443262835603  0.5238095301395711   F   F   F
  0.6694784799519294  0.6670965112757282  0.6187859820468231   T   T   T
  0.3181996139866732  0.6792994147895474  0.6706154484035881   T   T   T
