Ag  H  O 
 1.0000000000000000
     8.5983832630900725    0.0000000000000000    0.3096632092506426
     4.2936155075093092    7.4496349315025547    0.3096632092506426
     0.0000000000000000    0.0000000000000000   39.8433329235828140
 Ag  H   O  
  36   1   1
Selective dynamics
Direct
  0.1564655759604955  0.1564917207535621  0.5894066352881662   T   T   T
  0.1538907366464505  0.4897944876287949  0.5885533475895787   T   T   T
  0.1543718513789493  0.8255990185401835  0.5886913091551838   T   T   T
  0.4897191051984372  0.1545683821309941  0.5887457653581970   T   T   T
  0.4871522228864154  0.4897537514664064  0.5911383359502166   T   T   T
  0.4900163631951192  0.8242082789300043  0.5889332821168696   T   T   T
  0.8243069536519693  0.1559113954745510  0.5889499562165830   T   T   T
  0.8243443918126008  0.4897857637315457  0.5887764271915304   T   T   T
  0.8230920114333354  0.8232850626607525  0.5892724230318601   T   T   T
  0.2745556155504132  0.2743717711185353  0.5292255251410171   T   T   T
  0.2760925855592914  0.6069105147976870  0.5298556908193510   T   T   T
  0.2746527765578669  0.9410447276362179  0.5292953449368014   T   T   T
  0.6067598904800783  0.2763267739559030  0.5299370365287152   T   T   T
  0.6066450079127860  0.6067137815951832  0.5299210251323615   T   T   T
  0.6083155508822744  0.9407679104700033  0.5291160356056234   T   T   T
  0.9411652771256859  0.2744239213806644  0.5292685482439607   T   T   T
  0.9406421181451146  0.6084010125488857  0.5290153137580063   T   T   T
  0.9406799827498962  0.9411674123891162  0.5291285263114748   T   T   T
  0.0588233949072055  0.0588233949072054  0.4705882352941176   F   F   F
  0.0588233949072055  0.3921567282405387  0.4705882352941173   F   F   F
  0.0588233949072055  0.7254900615738720  0.4705882352941176   F   F   F
  0.3921567282405388  0.0588233949072054  0.4705882352941176   F   F   F
  0.3921567282405387  0.3921567282405387  0.4705882352941176   F   F   F
  0.3921567282405388  0.7254900615738720  0.4705882352941173   F   F   F
  0.7254900615738720  0.0588233949072054  0.4705882352941176   F   F   F
  0.7254900615738721  0.3921567282405387  0.4705882352941173   F   F   F
  0.7254900615738720  0.7254900615738720  0.4705882352941176   F   F   F
  0.1764704537307346  0.1764704537307344  0.4117647058823530   F   F   F
  0.1764704537307346  0.5098037870640678  0.4117647058823530   F   F   F
  0.1764704537307346  0.8431371203974013  0.4117647058823529   F   F   F
  0.5098037870640679  0.1764704537307344  0.4117647058823530   F   F   F
  0.5098037870640678  0.5098037870640678  0.4117647058823530   F   F   F
  0.5098037870640678  0.8431371203974013  0.4117647058823530   F   F   F
  0.8431371203974012  0.1764704537307344  0.4117647058823530   F   F   F
  0.8431371203974014  0.5098037870640678  0.4117647058823530   F   F   F
  0.8431371203974007  0.8431371203974013  0.4117647058823529   F   F   F
  0.5898081275420919  0.4890982606903372  0.6522318707800331   T   T   T
  0.4773365335076708  0.4896604176042064  0.6486158658784267   T   T   T
