Ag 
 1.0000000000000000
     8.5983832630900725    0.0000000000000000    0.3096632092506426
     4.2936155075093092    7.4496349315025547    0.3096632092506426
     0.0000000000000000    0.0000000000000000   39.8433329235828140
 Ag 
  36
Selective dynamics
Direct
  0.1568250248916375  0.1568251237731518  0.5885725234094603   T   T   T
  0.1568264937236172  0.4901571281173920  0.5885718690309556   T   T   T
  0.1568252185698854  0.8234967636489198  0.5885719675959394   T   T   T
  0.4901571986991125  0.1568265119736850  0.5885718746280098   T   T   T
  0.4901594257621933  0.4901592468622792  0.5885718584686023   T   T   T
  0.4901559025832039  0.8234953073751680  0.5885726837577667   T   T   T
  0.8234966955756962  0.1568253202836672  0.5885719901643208   T   T   T
  0.8234953262633705  0.4901557947121385  0.5885727035981607   T   T   T
  0.8234932189310906  0.8234932691978980  0.5885722860558490   T   T   T
  0.2745397337408217  0.2745397248890094  0.5291460414666972   T   T   T
  0.2745396728751280  0.6078750923269417  0.5291455810588312   T   T   T
  0.2745394929323936  0.9412022910691653  0.5291458233011525   T   T   T
  0.6078751504710589  0.2745396348044716  0.5291455834589891   T   T   T
  0.6078723149572048  0.6078722539160931  0.5291458524644000   T   T   T
  0.6078756763232901  0.9412027033421756  0.5291458777800684   T   T   T
  0.9412022701872983  0.2745395071796904  0.5291458258812962   T   T   T
  0.9412026856631005  0.6078756531264401  0.5291458789704595   T   T   T
  0.9412058200813208  0.9412058647515645  0.5291456115929420   T   T   T
  0.0588233949072055  0.0588233949072054  0.4705882352941176   F   F   F
  0.0588233949072055  0.3921567282405387  0.4705882352941173   F   F   F
  0.0588233949072055  0.7254900615738720  0.4705882352941176   F   F   F
  0.3921567282405388  0.0588233949072054  0.4705882352941176   F   F   F
  0.3921567282405387  0.3921567282405387  0.4705882352941176   F   F   F
  0.3921567282405388  0.7254900615738720  0.4705882352941173   F   F   F
  0.7254900615738720  0.0588233949072054  0.4705882352941176   F   F   F
  0.7254900615738721  0.3921567282405387  0.4705882352941173   F   F   F
  0.7254900615738720  0.7254900615738720  0.4705882352941176   F   F   F
  0.1764704537307346  0.1764704537307344  0.4117647058823530   F   F   F
  0.1764704537307346  0.5098037870640678  0.4117647058823530   F   F   F
  0.1764704537307346  0.8431371203974013  0.4117647058823529   F   F   F
  0.5098037870640679  0.1764704537307344  0.4117647058823530   F   F   F
  0.5098037870640678  0.5098037870640678  0.4117647058823530   F   F   F
  0.5098037870640678  0.8431371203974013  0.4117647058823530   F   F   F
  0.8431371203974012  0.1764704537307344  0.4117647058823530   F   F   F
  0.8431371203974014  0.5098037870640678  0.4117647058823530   F   F   F
  0.8431371203974007  0.8431371203974013  0.4117647058823529   F   F   F
