Ag  C  O 
 1.0000000000000000
     8.5983832630900725    0.0000000000000000    0.3096632092506426
     4.2936155075093092    7.4496349315025547    0.3096632092506426
     0.0000000000000000    0.0000000000000000   39.8433329235828140
 Ag  C   O  
  36   1   1
Selective dynamics
Direct
  0.1567891994157593  0.1567887870880523  0.5892886674745160   T   T   T
  0.1547777141008379  0.4900591196955791  0.5887001442136448   T   T   T
  0.1546201402401417  0.8258753131829065  0.5886616209110481   T   T   T
  0.4900591206198219  0.1547782687587744  0.5887001307619893   T   T   T
  0.4901237618835823  0.4901238784663814  0.5896769217885237   T   T   T
  0.4900945379060068  0.8260354868794094  0.5886094244698840   T   T   T
  0.8258746272831057  0.1546201556246840  0.5886616782157187   T   T   T
  0.8260354410679548  0.4900946523305121  0.5886094805133270   T   T   T
  0.8235166975670436  0.8235167308507608  0.5889506206848870   T   T   T
  0.2744419818797207  0.2744420659664902  0.5293241286586701   T   T   T
  0.2759658005245552  0.6070937316159217  0.5297402570909340   T   T   T
  0.2744272932309650  0.9413866599787387  0.5293060544040707   T   T   T
  0.6070939856968868  0.2759651772010206  0.5297404728687835   T   T   T
  0.6071604151617030  0.6071608632280339  0.5296955417076924   T   T   T
  0.6084135751377689  0.9410755981002367  0.5289365427558567   T   T   T
  0.9413871039796169  0.2744267905923972  0.5293061362207122   T   T   T
  0.9410752813159289  0.6084136076112470  0.5289365205230315   T   T   T
  0.9410065673212541  0.9410067419250143  0.5289349189596454   T   T   T
  0.0588233949072055  0.0588233949072054  0.4705882352941176   F   F   F
  0.0588233949072055  0.3921567282405387  0.4705882352941173   F   F   F
  0.0588233949072055  0.7254900615738720  0.4705882352941176   F   F   F
  0.3921567282405388  0.0588233949072054  0.4705882352941176   F   F   F
  0.3921567282405387  0.3921567282405387  0.4705882352941176   F   F   F
  0.3921567282405388  0.7254900615738720  0.4705882352941173   F   F   F
  0.7254900615738720  0.0588233949072054  0.4705882352941176   F   F   F
  0.7254900615738721  0.3921567282405387  0.4705882352941173   F   F   F
  0.7254900615738720  0.7254900615738720  0.4705882352941176   F   F   F
  0.1764704537307346  0.1764704537307344  0.4117647058823530   F   F   F
  0.1764704537307346  0.5098037870640678  0.4117647058823530   F   F   F
  0.1764704537307346  0.8431371203974013  0.4117647058823529   F   F   F
  0.5098037870640679  0.1764704537307344  0.4117647058823530   F   F   F
  0.5098037870640678  0.5098037870640678  0.4117647058823530   F   F   F
  0.5098037870640678  0.8431371203974013  0.4117647058823530   F   F   F
  0.8431371203974012  0.1764704537307344  0.4117647058823530   F   F   F
  0.8431371203974014  0.5098037870640678  0.4117647058823530   F   F   F
  0.8431371203974007  0.8431371203974013  0.4117647058823529   F   F   F
  0.4874210782360367  0.4874203021089618  0.6431409444913356   T   T   T
  0.4874837440570636  0.4874827871646047  0.6718916090669352   T   T   T
