Ag  C  O 
 1.0000000000000000
     8.5983832630900725    0.0000000000000000    0.3096632092506426
     4.2936155075093092    7.4496349315025547    0.3096632092506426
     0.0000000000000000    0.0000000000000000   39.8433329235828140
 Ag  C   O  
  36   1   1
Selective dynamics
Direct
  0.1567876151182810  0.1567871809451305  0.5892959791166126   T   T   T
  0.1547783443077862  0.4900590613796911  0.5887057733378769   T   T   T
  0.1546196833614785  0.8258726902937217  0.5886670300769324   T   T   T
  0.4900590942323450  0.1547789397755555  0.5887057537664407   T   T   T
  0.4901253916332052  0.4901254733273929  0.5896751263064461   T   T   T
  0.4900948159120183  0.8260342054874081  0.5886144600502773   T   T   T
  0.8258719442810610  0.1546196979816251  0.5886670840756481   T   T   T
  0.8260341713507138  0.4900949459645884  0.5886145193460027   T   T   T
  0.8235152094147671  0.8235152436462354  0.5889578087685682   T   T   T
  0.2744413613127078  0.2744414391184878  0.5293259723266374   T   T   T
  0.2759696528337831  0.6070913742550499  0.5297412841653198   T   T   T
  0.2744267062252683  0.9413858337014560  0.5293078502839379   T   T   T
  0.6070916327164798  0.2759689631289519  0.5297415189049938   T   T   T
  0.6071586880583455  0.6071592157082056  0.5296964212876699   T   T   T
  0.6084136583523899  0.9410755947643232  0.5289377187975856   T   T   T
  0.9413863223913609  0.2744261625991242  0.5293079353476557   T   T   T
  0.9410752569052215  0.6084136922630021  0.5289376944502336   T   T   T
  0.9410058698077332  0.9410060802848994  0.5289360348603371   T   T   T
  0.0588233949072055  0.0588233949072054  0.4705882352941176   F   F   F
  0.0588233949072055  0.3921567282405387  0.4705882352941173   F   F   F
  0.0588233949072055  0.7254900615738720  0.4705882352941176   F   F   F
  0.3921567282405388  0.0588233949072054  0.4705882352941176   F   F   F
  0.3921567282405387  0.3921567282405387  0.4705882352941176   F   F   F
  0.3921567282405388  0.7254900615738720  0.4705882352941173   F   F   F
  0.7254900615738720  0.0588233949072054  0.4705882352941176   F   F   F
  0.7254900615738721  0.3921567282405387  0.4705882352941173   F   F   F
  0.7254900615738720  0.7254900615738720  0.4705882352941176   F   F   F
  0.1764704537307346  0.1764704537307344  0.4117647058823530   F   F   F
  0.1764704537307346  0.5098037870640678  0.4117647058823530   F   F   F
  0.1764704537307346  0.8431371203974013  0.4117647058823529   F   F   F
  0.5098037870640679  0.1764704537307344  0.4117647058823530   F   F   F
  0.5098037870640678  0.5098037870640678  0.4117647058823530   F   F   F
  0.5098037870640678  0.8431371203974013  0.4117647058823530   F   F   F
  0.8431371203974012  0.1764704537307344  0.4117647058823530   F   F   F
  0.8431371203974014  0.5098037870640678  0.4117647058823530   F   F   F
  0.8431371203974007  0.8431371203974013  0.4117647058823529   F   F   F
  0.4874298287842357  0.4874290405601036  0.6431231303783537   T   T   T
  0.4874828497513627  0.4874819037256944  0.6718811959445540   T   T   T
