 H Pd  O 
 1.0000000000000000
     8.2582115393440390    0.0000000000000000    0.0000000000000006
    -4.1291057696720213    7.1518209828977302    0.0000000000000006
     0.0000000000000000    0.0000000000000000   40.4568089187138042
 H   Pd  O  
   1  36   1
Selective dynamics
Direct
  0.7617155837692249  0.6663137991534223  0.6446064678581988   T   T   T
  0.0000003242213467  0.0000001621106736  0.4166666666666669   F   F   F
  0.0000003242213467  0.3333334954440070  0.4166666666666669   F   F   F
  0.0000003242213466  0.6666668287773403  0.4166666666666669   F   F   F
  0.3333336575546800  0.0000001621106736  0.4166666666666669   F   F   F
  0.3333336575546800  0.3333334954440070  0.4166666666666669   F   F   F
  0.3333336575546799  0.6666668287773403  0.4166666666666669   F   F   F
  0.6666669908880133  0.0000001621106736  0.4166666666666669   F   F   F
  0.6666669908880132  0.3333334954440070  0.4166666666666669   F   F   F
  0.6666669908880132  0.6666668287773403  0.4166666666666669   F   F   F
  0.1111114353324573  0.2222223843328956  0.4722222222222223   F   F   F
  0.1111114353324573  0.5555557176662289  0.4722222222222223   F   F   F
  0.1111114353324574  0.8888890509995623  0.4722222222222223   F   F   F
  0.4444447686657906  0.2222223843328956  0.4722222222222223   F   F   F
  0.4444447686657906  0.5555557176662289  0.4722222222222223   F   F   F
  0.4444447686657906  0.8888890509995623  0.4722222222222223   F   F   F
  0.7777781019991239  0.2222223843328956  0.4722222222222223   F   F   F
  0.7777781019991239  0.5555557176662289  0.4722222222222223   F   F   F
  0.7777781019991239  0.8888890509995623  0.4722222222222223   F   F   F
  0.2224288566710985  0.1110784572219662  0.5275409922576156   T   T   T
  0.2223412648317046  0.4443060569927662  0.5275559109024519   T   T   T
  0.2223441145458662  0.7779741005569956  0.5274891461112236   T   T   T
  0.5557124562484835  0.1112063581654679  0.5275566189592603   T   T   T
  0.5565750171373961  0.4459130248007290  0.5281679736154823   T   T   T
  0.5564186533506917  0.7773355114406381  0.5280023272172418   T   T   T
  0.8892551824439265  0.1113011429533569  0.5275976285476967   T   T   T
  0.8891482624911539  0.4444175699284929  0.5276188248320661   T   T   T
  0.8876683226125212  0.7771153733627613  0.5281824757624187   T   T   T
  0.0016485449838172  0.0006790977818953  0.5837630472819116   T   T   T
  0.0004390287276513  0.3330974775779739  0.5838771092524377   T   T   T
  0.0017379478518556  0.6666014146694654  0.5837701289899656   T   T   T
  0.3337630126644476 -0.0002604006015129  0.5839675058178926   T   T   T
  0.3323104227583168  0.3314512419113381  0.5836849771422788   T   T   T
  0.3321063901275539  0.6666314375003700  0.5834773044647467   T   T   T
  0.6670611835563979  0.0010197304542912  0.5836352672328542   T   T   T
  0.6672064627253917  0.3318581818897543  0.5837899150636697   T   T   T
  0.6664385748458099  0.6658979503861843  0.5859589100529878   T   T   T
  0.6499905008329698  0.6678721649698116  0.6366338303845405   T   T   T
