 H Pd  O 
 1.0000000000000000
     8.2582115393440390    0.0000000000000000    0.0000000000000006
    -4.1291057696720213    7.1518209828977302    0.0000000000000006
     0.0000000000000000    0.0000000000000000   40.4568089187138042
 H   Pd  O  
   1  36   1
Selective dynamics
Direct
  0.7612277860949282  0.6663143685249605  0.6445383676954417   T   T   T
  0.0000003242213467  0.0000001621106736  0.4166666666666669   F   F   F
  0.0000003242213467  0.3333334954440070  0.4166666666666669   F   F   F
  0.0000003242213466  0.6666668287773403  0.4166666666666669   F   F   F
  0.3333336575546800  0.0000001621106736  0.4166666666666669   F   F   F
  0.3333336575546800  0.3333334954440070  0.4166666666666669   F   F   F
  0.3333336575546799  0.6666668287773403  0.4166666666666669   F   F   F
  0.6666669908880133  0.0000001621106736  0.4166666666666669   F   F   F
  0.6666669908880132  0.3333334954440070  0.4166666666666669   F   F   F
  0.6666669908880132  0.6666668287773403  0.4166666666666669   F   F   F
  0.1111114353324573  0.2222223843328956  0.4722222222222223   F   F   F
  0.1111114353324573  0.5555557176662289  0.4722222222222223   F   F   F
  0.1111114353324574  0.8888890509995623  0.4722222222222223   F   F   F
  0.4444447686657906  0.2222223843328956  0.4722222222222223   F   F   F
  0.4444447686657906  0.5555557176662289  0.4722222222222223   F   F   F
  0.4444447686657906  0.8888890509995623  0.4722222222222223   F   F   F
  0.7777781019991239  0.2222223843328956  0.4722222222222223   F   F   F
  0.7777781019991239  0.5555557176662289  0.4722222222222223   F   F   F
  0.7777781019991239  0.8888890509995623  0.4722222222222223   F   F   F
  0.2224546136069299  0.1111435115497288  0.5275437244706008   T   T   T
  0.2223650503626681  0.4443348937704569  0.5275570256799041   T   T   T
  0.2224050994677592  0.7779838866616141  0.5274827374737039   T   T   T
  0.5557376081059789  0.1112060545609434  0.5275594469428931   T   T   T
  0.5565735595112181  0.4458857068255286  0.5281722006913132   T   T   T
  0.5564342437063732  0.7773871711590046  0.5279984887738761   T   T   T
  0.8892392852161308  0.1113069171486116  0.5275991123580902   T   T   T
  0.8891374521711213  0.4444360811065023  0.5276140447903985   T   T   T
  0.8877646131937285  0.7771885043365359  0.5281814864249412   T   T   T
  0.0017381669433027  0.0007574100432449  0.5837749448745460   T   T   T
  0.0004817729973169  0.3330998252281257  0.5838658657179713   T   T   T
  0.0019384451138437  0.6666150976141302  0.5837635577620768   T   T   T
  0.3338180979436501 -0.0002443813893855  0.5839544964511477   T   T   T
  0.3323568236020552  0.3314885639121583  0.5837087431389056   T   T   T
  0.3322442803480138  0.6666366977222855  0.5834873984320603   T   T   T
  0.6671084208897021  0.0009640615085357  0.5836586102478368   T   T   T
  0.6672514282968067  0.3317590113524631  0.5838048729853537   T   T   T
  0.6666120311115897  0.6658460114001560  0.5859187826530984   T   T   T
  0.6495484606971144  0.6678709545556056  0.6365467010673113   T   T   T
