 H Pd  O 
 1.0000000000000000
     8.2582115393440390    0.0000000000000000    0.0000000000000006
    -4.1291057696720213    7.1518209828977302    0.0000000000000006
     0.0000000000000000    0.0000000000000000   40.4568089187138042
 H   Pd  O  
   1  36   1
Selective dynamics
Direct
  0.7595416928183510  0.6663164473008214  0.6442606224218550   T   T   T
  0.0000003242213467  0.0000001621106736  0.4166666666666669   F   F   F
  0.0000003242213467  0.3333334954440070  0.4166666666666669   F   F   F
  0.0000003242213466  0.6666668287773403  0.4166666666666669   F   F   F
  0.3333336575546800  0.0000001621106736  0.4166666666666669   F   F   F
  0.3333336575546800  0.3333334954440070  0.4166666666666669   F   F   F
  0.3333336575546799  0.6666668287773403  0.4166666666666669   F   F   F
  0.6666669908880133  0.0000001621106736  0.4166666666666669   F   F   F
  0.6666669908880132  0.3333334954440070  0.4166666666666669   F   F   F
  0.6666669908880132  0.6666668287773403  0.4166666666666669   F   F   F
  0.1111114353324573  0.2222223843328956  0.4722222222222223   F   F   F
  0.1111114353324573  0.5555557176662289  0.4722222222222223   F   F   F
  0.1111114353324574  0.8888890509995623  0.4722222222222223   F   F   F
  0.4444447686657906  0.2222223843328956  0.4722222222222223   F   F   F
  0.4444447686657906  0.5555557176662289  0.4722222222222223   F   F   F
  0.4444447686657906  0.8888890509995623  0.4722222222222223   F   F   F
  0.7777781019991239  0.2222223843328956  0.4722222222222223   F   F   F
  0.7777781019991239  0.5555557176662289  0.4722222222222223   F   F   F
  0.7777781019991239  0.8888890509995623  0.4722222222222223   F   F   F
  0.2224731262070991  0.1113795628475423  0.5274780957441427   T   T   T
  0.2222937315668133  0.4443674870805929  0.5274508150501509   T   T   T
  0.2225656274453569  0.7779672829453591  0.5273827101603624   T   T   T
  0.5557655788513403  0.1111742269740085  0.5274846768107962   T   T   T
  0.5567937178309328  0.4463532485702969  0.5282965965067279   T   T   T
  0.5566896392516468  0.7773282462407118  0.5280804163690461   T   T   T
  0.8891432259884253  0.1114141613389444  0.5274971552556896   T   T   T
  0.8890117756221211  0.4444409007946888  0.5274970414292895   T   T   T
  0.8877915713236872  0.7773502059542224  0.5282533712555609   T   T   T
  0.0016593283042282  0.0007413113181728  0.5837304891363084   T   T   T
  0.0004447913927618  0.3330846862530184  0.5837062818787422   T   T   T
  0.0024849937497506  0.6668251529843728  0.5836000545518197   T   T   T
  0.3338475406499656 -0.0001321224099075  0.5837578383480956   T   T   T
  0.3328921546718675  0.3321089330494018  0.5837369797070850   T   T   T
  0.3331231769722691  0.6667476151855690  0.5834519440398425   T   T   T
  0.6670221603790284  0.0003089069781166  0.5836947049708353   T   T   T
  0.6671146728748273  0.3316110976382385  0.5837729391833379   T   T   T
  0.6673934772027947  0.6653027604668867  0.5864479841731861   T   T   T
  0.6489926168110861  0.6678596047239705  0.6354334296325483   T   T   T
