 H Pd  O 
 1.0000000000000000
     8.2582115393440390    0.0000000000000000    0.0000000000000006
    -4.1291057696720213    7.1518209828977302    0.0000000000000006
     0.0000000000000000    0.0000000000000000   40.4568089187138042
 H   Pd  O  
   1  36   1
Selective dynamics
Direct
  0.7595174894797890  0.6663279385912646  0.6442749809410843   T   T   T
  0.0000003242213467  0.0000001621106736  0.4166666666666669   F   F   F
  0.0000003242213467  0.3333334954440070  0.4166666666666669   F   F   F
  0.0000003242213466  0.6666668287773403  0.4166666666666669   F   F   F
  0.3333336575546800  0.0000001621106736  0.4166666666666669   F   F   F
  0.3333336575546800  0.3333334954440070  0.4166666666666669   F   F   F
  0.3333336575546799  0.6666668287773403  0.4166666666666669   F   F   F
  0.6666669908880133  0.0000001621106736  0.4166666666666669   F   F   F
  0.6666669908880132  0.3333334954440070  0.4166666666666669   F   F   F
  0.6666669908880132  0.6666668287773403  0.4166666666666669   F   F   F
  0.1111114353324573  0.2222223843328956  0.4722222222222223   F   F   F
  0.1111114353324573  0.5555557176662289  0.4722222222222223   F   F   F
  0.1111114353324574  0.8888890509995623  0.4722222222222223   F   F   F
  0.4444447686657906  0.2222223843328956  0.4722222222222223   F   F   F
  0.4444447686657906  0.5555557176662289  0.4722222222222223   F   F   F
  0.4444447686657906  0.8888890509995623  0.4722222222222223   F   F   F
  0.7777781019991239  0.2222223843328956  0.4722222222222223   F   F   F
  0.7777781019991239  0.5555557176662289  0.4722222222222223   F   F   F
  0.7777781019991239  0.8888890509995623  0.4722222222222223   F   F   F
  0.2224790805011998  0.1114068407835161  0.5274691514111810   T   T   T
  0.2222836415939855  0.4443734464616533  0.5274405770529996   T   T   T
  0.2225921611050408  0.7779666788503852  0.5273712976865671   T   T   T
  0.5557475854835291  0.1111551437127313  0.5274728660496842   T   T   T
  0.5568225756295733  0.4464214272627651  0.5282997567340435   T   T   T
  0.5567209228793820  0.7772882167053941  0.5280850845942000   T   T   T
  0.8891206874359228  0.1114158358069837  0.5274886529679521   T   T   T
  0.8889931426198776  0.4444379114129450  0.5274896913070353   T   T   T
  0.8877297779024305  0.7773245874129664  0.5282606101105153   T   T   T
  0.0016539510628426  0.0007755738867866  0.5837242610326930   T   T   T
  0.0004288774734704  0.3330922896194210  0.5837108072232624   T   T   T
  0.0025746629379713  0.6668519495020526  0.5835964671391414   T   T   T
  0.3338402823520902 -0.0001164952384445  0.5837642591466907   T   T   T
  0.3329551306182247  0.3322227307214982  0.5837317125706669   T   T   T
  0.3332495811144010  0.6667502846077857  0.5834517550220432   T   T   T
  0.6669978145422478  0.0002292441384098  0.5836932088873862   T   T   T
  0.6670770718170900  0.3315687453295375  0.5837696108701597   T   T   T
  0.6674456411276130  0.6653202434118868  0.5864964215074095   T   T   T
  0.6489138339036912  0.6678107296964854  0.6354570153626953   T   T   T
