Ag  H Pd  O 
 1.0000000000000000
     8.3348369443761747    0.0000000000000000    0.0000000000000005
     4.1674184721880891    7.2181805302308319    0.0000000000000005
     0.0000000000000000    0.0000000000000000   47.6375610737127033
 Ag  H   Pd  O  
   9   1  27   1
Selective dynamics
Direct
  0.6666666666666667  0.6666666666666667  0.4761904572003339   F   F   F
  0.4444444444444448  0.4444444444444445  0.5238095048193816   F   F   F
  0.4444444444444446  1.1111111111111112  0.5238095048193816   F   F   F
  0.9991109962546172  0.6697532372476385  0.6218723101578273   T   T   T
  0.3320703145302609  0.6699263937206585  0.6217657380185106   T   T   T
  0.2230135273594532  0.2235067301701593  0.5716798117310286   T   T   T
  0.2245750277965508  0.8874660093192326  0.5722361271802348   T   T   T
  0.8887821561698238  0.2236153131217507  0.5716232023210275   T   T   T
  0.8893941693982552  0.8885163980965645  0.5721981709478513   T   T   T
  0.7614172007736235  0.6692098351323510  0.6728472927607267   T   T   T
  0.3333333924137755  0.3333333924137756  0.4761904825205235   F   F   F
  0.3333333924137756  1.0000000590804423  0.4761904825205235   F   F   F
  1.0000000590804421  0.3333333924137756  0.4761904825205235   F   F   F
  1.0000000590804421  1.0000000590804423  0.4761904825205235   F   F   F
  0.6666665485057828  0.3333333924137756  0.4761904825205235   F   F   F
  0.6666665485057829  1.0000000590804423  0.4761904825205235   F   F   F
  0.3333333924137759  0.6666665485057824  0.4761904825205235   F   F   F
  1.0000000590804428  0.6666665485057824  0.4761904825205235   F   F   F
  0.5570575094696313  0.5563070743614903  0.5719147932134906   T   T   T
  0.1111111701915532  0.1111111701915532  0.5238095301395711   F   F   F
  0.1111111701915533  0.7777778368582199  0.5238095301395711   F   F   F
  0.7777778368582201  0.1111111701915532  0.5238095301395711   F   F   F
  0.7777778368582201  0.7777778368582199  0.5238095301395711   F   F   F
  0.3351099026413210  0.3338633534793106  0.6194452214426219   T   T   T
  0.3320409504972087  1.0068980807652717  0.6200107063778240   T   T   T
  1.0000719191700544  0.3350985196024912  0.6197056584247040   T   T   T
  0.9970925822151251  1.0083567479484279  0.6207443583217045   T   T   T
  0.2228696821371577  0.5552275847218034  0.5718039270726646   T   T   T
  0.8876627884473968  0.5574599761501773  0.5716399287641758   T   T   T
  0.4444443262835602  0.7777778368582199  0.5238095301395711   F   F   F
  0.6667933451412245  0.3347925358197016  0.6193170258612211   T   T   T
  0.6630278082740354  1.0066324900241932  0.6197177212885977   T   T   T
  0.5564762382264317  0.2234082056993442  0.5718530388653517   T   T   T
  0.5586567568925832  0.8862081105506200  0.5723009940569339   T   T   T
  0.1111111701915534  0.4444443262835603  0.5238095301395711   F   F   F
  0.7777778368582202  0.4444443262835603  0.5238095301395711   F   F   F
  0.6652955998412474  0.6710591623069392  0.6213207034788168   T   T   T
  0.6576678656417281  0.6591827967818303  0.6650084372818791   T   T   T
