Ag Pd 
 1.0000000000000000
     8.3348369443761747    0.0000000000000000    0.0000000000000005
     4.1674184721880891    7.2181805302308319    0.0000000000000005
     0.0000000000000000    0.0000000000000000   47.6375610737127033
 Ag  Pd 
   9  27
Selective dynamics
Direct
  0.6666666666666667  0.6666666666666667  0.4761904572003339   F   F   F
  0.4444444444444448  0.4444444444444445  0.5238095048193816   F   F   F
  0.4444444444444446  1.1111111111111112  0.5238095048193816   F   F   F
  0.9991755471149254  0.6671550336334422  0.6226617544602921   T   T   T
  0.3345168526762469  0.6675482732631013  0.6228684953386886   T   T   T
  0.2228331537737666  0.2217254559933844  0.5717717788736281   T   T   T
  0.2246989521730563  0.8854361162744984  0.5725962314919574   T   T   T
  0.8888946704535176  0.2222246729245263  0.5716784630007405   T   T   T
  0.8898999256319381  0.8870039434215162  0.5724650496220790   T   T   T
  0.3333333924137755  0.3333333924137756  0.4761904825205235   F   F   F
  0.3333333924137756  1.0000000590804423  0.4761904825205235   F   F   F
  1.0000000590804421  0.3333333924137756  0.4761904825205235   F   F   F
  1.0000000590804421  1.0000000590804423  0.4761904825205235   F   F   F
  0.6666665485057828  0.3333333924137756  0.4761904825205235   F   F   F
  0.6666665485057829  1.0000000590804423  0.4761904825205235   F   F   F
  0.3333333924137759  0.6666665485057824  0.4761904825205235   F   F   F
  1.0000000590804428  0.6666665485057824  0.4761904825205235   F   F   F
  0.5558901726251968  0.5545161294849588  0.5716145473433744   T   T   T
  0.1111111701915532  0.1111111701915532  0.5238095301395711   F   F   F
  0.1111111701915533  0.7777778368582199  0.5238095301395711   F   F   F
  0.7777778368582201  0.1111111701915532  0.5238095301395711   F   F   F
  0.7777778368582201  0.7777778368582199  0.5238095301395711   F   F   F
  0.3363179978858756  0.3315737697221889  0.6192117178187798   T   T   T
  0.3355743846859978  1.0024215785501205  0.6201601646390272   T   T   T
  0.9994076723965156  0.3342194409594039  0.6197753121521969   T   T   T
  0.9976422645827724  1.0065128078977539  0.6207634753490573   T   T   T
  0.2228594026591316  0.5539793425143350  0.5720852454683020   T   T   T
  0.8893494787707452  0.5557085789667651  0.5711828470878157   T   T   T
  0.4444443262835602  0.7777778368582199  0.5238095301395711   F   F   F
  0.6673696069785771  0.3340962184111749  0.6194633668281663   T   T   T
  0.6632684783882059  1.0025272401333560  0.6196808389258507   T   T   T
  0.5567224398003628  0.2222240176296995  0.5718266096289576   T   T   T
  0.5573555495986096  0.8873160478672705  0.5715831218739127   T   T   T
  0.1111111701915534  0.4444443262835603  0.5238095301395711   F   F   F
  0.7777778368582202  0.4444443262835603  0.5238095301395711   F   F   F
  0.6679201694044506  0.6667609592070500  0.6186632874564196   T   T   T
