Ag  H Pd  O 
 1.0000000000000000
     8.5013114179517117    0.0000000000000000    0.0000000000000005
     4.2506557089758541    7.3623516534288900    0.0000000000000005
     0.0000000000000000    0.0000000000000000   48.5890419431158733
 Ag  H   Pd  O  
  26   1  10   1
Selective dynamics
Direct
  0.6666666666666671  0.6666666666666666  0.4761904911784334   F   F   F
  0.3333332867041333  0.3333332867041335  0.4761904711944905   F   F   F
  0.3333332867041333  0.9999999533708002  0.4761904711944905   F   F   F
  0.9999999533707997  0.3333332867041335  0.4761904711944905   F   F   F
  0.9999999533707999  0.9999999533708002  0.4761904711944905   F   F   F
  0.6666667599250664  0.3333332867041335  0.4761904711944905   F   F   F
  0.6666667599250664  0.9999999533708002  0.4761904711944905   F   F   F
  0.4444444444444445  0.4444444444444445  0.5238095387974809   F   F   F
  0.6665558269742057  0.6679041966337351  0.6199981201422301   T   T   T
  0.2234210705686556  0.2216966505193112  0.5710828153980194   T   T   T
  0.2232914217816329  0.8877599783549300  0.5718208601484929   T   T   T
  0.8875571291953609  0.2224284328870707  0.5708404802894601   T   T   T
  0.8851543321354535  0.8918991475288643  0.5712722790980912   T   T   T
  0.5536106641089151  0.5571013382877742  0.5718531061875132   T   T   T
  0.1111110644819112  0.7777777311485777  0.5238095188135381   F   F   F
  0.7777777311485781  0.7777777311485777  0.5238095188135381   F   F   F
  0.3313293674704190  0.3352896076606067  0.6196643559746495   T   T   T
  0.3329468399877669  0.9995030270905523  0.6198500043514150   T   T   T
  0.9988901211159775  0.3351599351046395  0.6205115634409495   T   T   T
  0.9988484122033435  0.9987139361505977  0.6201837346242566   T   T   T
  0.2240625236148412  0.5553153186588798  0.5716741267597004   T   T   T
  0.8877852854478380  0.5555375931500158  0.5710853843941200   T   T   T
  0.4444445377028442  0.1111110644819113  0.5238095188135381   F   F   F
  0.4444445377028442  0.7777777311485780  0.5238095188135381   F   F   F
  0.6654624155592614  0.3335377204179272  0.6197003962778473   T   T   T
  0.6662220823357744  0.9994501041256713  0.6196372220482701   T   T   T
  0.4317800329361956  0.6660557313322172  0.6719349106911636   T   T   T
  0.3333332867041338  0.6666667599250664  0.4761904711944905   F   F   F
  0.9999999533708005  0.6666667599250664  0.4761904711944905   F   F   F
  0.5562636736292728  0.2217104794735518  0.5714900499504475   T   T   T
  0.5546219935019450  0.8896148718817100  0.5716710388857671   T   T   T
  0.1111110644819112  0.4444445377028443  0.5238095188135381   F   F   F
  0.1111110644819112  1.1111112043695111  0.5238095188135381   F   F   F
  0.7777777311485784  0.4444445377028443  0.5238095188135381   F   F   F
  0.7777777311485777  1.1111112043695111  0.5238095188135381   F   F   F
  0.3304831403632292  0.6675757061558339  0.6207078846921457   T   T   T
  0.9977078202412984  0.6667912031063418  0.6178362619556056   T   T   T
  0.3229515195513146  0.6647150851413002  0.6655297277191656   T   T   T
