Ag  H Pd  O 
 1.0000000000000000
     8.4012246744318553    0.0000000000000000    0.0000000000000006
     0.0000000000000016    9.7556249397631500    0.0778334351619916
     0.0000000000000000    0.0000000000000000   41.2743430770740716
 Ag  H   Pd  O  
  24   1  24   1
Selective dynamics
Direct
  0.1645040041095533  0.2520475093213035  0.5847257340728236   T   T   T
  0.1657871372336357  0.7522365747097530  0.5853779940118298   T   T   T
  0.4979860328701957  0.2514743817781528  0.5869321873376496   T   T   T
  0.4996295421905192  0.7520720927103185  0.5854381331573748   T   T   T
  0.8331579056405088  0.2520465341438132  0.5848537500772791   T   T   T
  0.8330595054154624  0.7521430011211668  0.5854134196794907   T   T   T
  0.1664462607543943  0.4169653639052158  0.5279051482024314   T   T   T
  0.1665197064779735  0.9168083158978715  0.5279431287120341   T   T   T
  0.4997958147894903  0.4161324104305559  0.5282801415735666   T   T   T
  0.4998317250267740  0.9166181264899752  0.5279259370728476   T   T   T
  0.8330109273359302  0.4169279790577097  0.5279555603712566   T   T   T
  0.8328889604993975  0.9167837280046619  0.5279824128438602   T   T   T
  0.1666664815226225  0.0833334535709418  0.4722222217898217   F   F   F
  0.1666664815226226  0.5833334535709418  0.4722222217898217   F   F   F
  0.4999998148559556  0.0833334535709418  0.4722222217898217   F   F   F
  0.4999998148559556  0.5833334535709418  0.4722222217898217   F   F   F
  0.8333331481892892  0.0833334535709418  0.4722222217898217   F   F   F
  0.8333331481892892  0.5833334535709418  0.4722222217898217   F   F   F
  0.1666664815226225  0.2500001202376085  0.4166666662342661   F   F   F
  0.1666664815226226  0.7500001202376085  0.4166666662342661   F   F   F
  0.4999998148559556  0.2500001202376085  0.4166666662342661   F   F   F
  0.4999998148559556  0.7500001202376085  0.4166666662342661   F   F   F
  0.8333331481892892  0.2500001202376085  0.4166666662342661   F   F   F
  0.8333331481892892  0.7500001202376085  0.4166666662342661   F   F   F
  0.6056424304061834  0.2527818762043833  0.6457640307749579   T   T   T
  0.3323078737552786  0.0018108898485029  0.5828821324215548   T   T   T
  0.3323340830477672  0.5053895454594457  0.5828564492930299   T   T   T
  0.6665051555891531  0.0022158704541718  0.5830148062396332   T   T   T
  0.6664223641157261  0.5047903526410634  0.5830427330785366   T   T   T
  0.9993685973428525  0.0035929481112034  0.5830762217039466   T   T   T
  0.9994296949186909  0.5042576172991307  0.5830547592437150   T   T   T
  0.3339983317763691  0.1685297569891097  0.5282234332655669   T   T   T
  0.3331926647476002  0.6680235606580925  0.5280005973498707   T   T   T
  0.6653629967699288  0.1685225038404672  0.5282767174489834   T   T   T
  0.6664449096365775  0.6678666143690176  0.5280617584218540   T   T   T
  0.9996161938200006  0.1676118609679672  0.5278305279353750   T   T   T
  0.9997646161915553  0.6680380222009096  0.5280205616610678   T   T   T
  0.3333331481892897  0.3333334587597487  0.4722222226546229   F   F   F
  0.3333331481892897  0.8333334587597487  0.4722222226546229   F   F   F
  0.6666664815226231  0.3333334587597487  0.4722222226546229   F   F   F
  0.6666664815226231  0.8333334587597487  0.4722222226546229   F   F   F
  0.9999998148559561  0.3333334587597487  0.4722222226546229   F   F   F
  0.9999998148559563  0.8333334587597487  0.4722222226546229   F   F   F
  0.3333331481892892  0.0000001254264155  0.4166666670990671   F   F   F
  0.3333331481892892  0.5000001254264155  0.4166666670990673   F   F   F
  0.6666664815226225  0.0000001254264155  0.4166666670990671   F   F   F
  0.6666664815226224  0.5000001254264155  0.4166666670990673   F   F   F
  0.9999998148559557  0.0000001254264155  0.4166666670990671   F   F   F
  0.9999998148559557  0.5000001254264155  0.4166666670990673   F   F   F
  0.4921593278842968  0.2640602600042053  0.6408140592709199   T   T   T
