Ag  H Pd  O 
 1.0000000000000000
     8.4012246744318553    0.0000000000000000    0.0000000000000006
     0.0000000000000016    9.7556249397631500    0.0778334351619916
     0.0000000000000000    0.0000000000000000   41.2743430770740716
 Ag  H   Pd  O  
  24   1  24   1
Selective dynamics
Direct
  0.1645610590781506  0.2520070888086768  0.5847459731287891   T   T   T
  0.1656999363805147  0.7522983032860890  0.5853474949022994   T   T   T
  0.4992974904859657  0.2513814659932496  0.5866604801696382   T   T   T
  0.4995280141320826  0.7521575972204100  0.5853467519635808   T   T   T
  0.8334409615805752  0.2519908877013213  0.5848881119347048   T   T   T
  0.8331280401010803  0.7522138966960139  0.5854034077585594   T   T   T
  0.1663805455365517  0.4174150499920924  0.5278795745579037   T   T   T
  0.1664161137049225  0.9174447097897900  0.5278975165527173   T   T   T
  0.4997309702108246  0.4166845373989047  0.5282646258785064   T   T   T
  0.4997673402927119  0.9173482479264350  0.5278702824598264   T   T   T
  0.8329611689233680  0.4173578727040326  0.5279276332331980   T   T   T
  0.8329255679889677  0.9173956764792706  0.5279394206050473   T   T   T
  0.1666664815226225  0.0833334535709418  0.4722222217898217   F   F   F
  0.1666664815226226  0.5833334535709418  0.4722222217898217   F   F   F
  0.4999998148559556  0.0833334535709418  0.4722222217898217   F   F   F
  0.4999998148559556  0.5833334535709418  0.4722222217898217   F   F   F
  0.8333331481892892  0.0833334535709418  0.4722222217898217   F   F   F
  0.8333331481892892  0.5833334535709418  0.4722222217898217   F   F   F
  0.1666664815226225  0.2500001202376085  0.4166666662342661   F   F   F
  0.1666664815226226  0.7500001202376085  0.4166666662342661   F   F   F
  0.4999998148559556  0.2500001202376085  0.4166666662342661   F   F   F
  0.4999998148559556  0.7500001202376085  0.4166666662342661   F   F   F
  0.8333331481892892  0.2500001202376085  0.4166666662342661   F   F   F
  0.8333331481892892  0.7500001202376085  0.4166666662342661   F   F   F
  0.6044066824983724  0.2532788389948155  0.6494837203695984   T   T   T
  0.3322754092206681  0.0016841836674832  0.5829306651035775   T   T   T
  0.3320556499969398  0.5053295120653001  0.5828831490989200   T   T   T
  0.6664912739559653  0.0017974276362823  0.5830402567556336   T   T   T
  0.6665704219593405  0.5049825193035975  0.5830393044478073   T   T   T
  0.9993591044172158  0.0035098755848217  0.5831629904607613   T   T   T
  0.9993905909243581  0.5039070142753570  0.5831775982837225   T   T   T
  0.3340482308453867  0.1693943794316609  0.5282965989631322   T   T   T
  0.3331668251312532  0.6688379593002893  0.5279371698309971   T   T   T
  0.6653581742123892  0.1692951292343379  0.5282877282974475   T   T   T
  0.6664059153707764  0.6686888490007208  0.5279938822428188   T   T   T
  0.9995588070214803  0.1683455071916420  0.5277863105118481   T   T   T
  0.9997052914607102  0.6687527531771894  0.5280151737445083   T   T   T
  0.3333331481892897  0.3333334587597487  0.4722222226546229   F   F   F
  0.3333331481892897  0.8333334587597487  0.4722222226546229   F   F   F
  0.6666664815226231  0.3333334587597487  0.4722222226546229   F   F   F
  0.6666664815226231  0.8333334587597487  0.4722222226546229   F   F   F
  0.9999998148559561  0.3333334587597487  0.4722222226546229   F   F   F
  0.9999998148559563  0.8333334587597487  0.4722222226546229   F   F   F
  0.3333331481892892  0.0000001254264155  0.4166666670990671   F   F   F
  0.3333331481892892  0.5000001254264155  0.4166666670990673   F   F   F
  0.6666664815226225  0.0000001254264155  0.4166666670990671   F   F   F
  0.6666664815226224  0.5000001254264155  0.4166666670990673   F   F   F
  0.9999998148559557  0.0000001254264155  0.4166666670990671   F   F   F
  0.9999998148559557  0.5000001254264155  0.4166666670990673   F   F   F
  0.4947358911595083  0.2658473070833003  0.6416911725578328   T   T   T
