Ag Pd  C  O 
 1.0000000000000000
     8.4012246744318553    0.0000000000000000    0.0000000000000006
     0.0000000000000016    9.7556249397631500    0.0778334351619916
     0.0000000000000000    0.0000000000000000   41.2743430770740716
 Ag  Pd  C   O  
  24  24   1   1
Selective dynamics
Direct
  0.1666720604514280  0.2497185616635175  0.5853731996244798   T   T   T
  0.1666677940819141  0.7509061061567157  0.5852287296430364   T   T   T
  0.4990484793155707  0.2488655641662194  0.5853016839386619   T   T   T
  0.4984033174169186  0.7523710567164829  0.5850273798068771   T   T   T
  0.8342951106542238  0.2488646847891813  0.5853019088970779   T   T   T
  0.8349315709710176  0.7523717271813349  0.5850286235750846   T   T   T
  0.1666620379982101  0.4159527522501361  0.5279900978647057   T   T   T
  0.1666708557348168  0.9157497307772405  0.5278749985064008   T   T   T
  0.5009758773146582  0.4164205229365076  0.5283853911064060   T   T   T
  0.5003395701577419  0.9155785872331066  0.5278498084577701   T   T   T
  0.8323516328957652  0.4164202592754762  0.5283847387704192   T   T   T
  0.8330016795209438  0.9155782724014557  0.5278498393615544   T   T   T
  0.1666664815226225  0.0833334535709418  0.4722222217898217   F   F   F
  0.1666664815226226  0.5833334535709418  0.4722222217898217   F   F   F
  0.4999998148559556  0.0833334535709418  0.4722222217898217   F   F   F
  0.4999998148559556  0.5833334535709418  0.4722222217898217   F   F   F
  0.8333331481892892  0.0833334535709418  0.4722222217898217   F   F   F
  0.8333331481892892  0.5833334535709418  0.4722222217898217   F   F   F
  0.1666664815226225  0.2500001202376085  0.4166666662342661   F   F   F
  0.1666664815226226  0.7500001202376085  0.4166666662342661   F   F   F
  0.4999998148559556  0.2500001202376085  0.4166666662342661   F   F   F
  0.4999998148559556  0.7500001202376085  0.4166666662342661   F   F   F
  0.8333331481892892  0.2500001202376085  0.4166666662342661   F   F   F
  0.8333331481892892  0.7500001202376085  0.4166666662342661   F   F   F
  0.3329689722372042  0.0020893251461252  0.5829144988000309   T   T   T
  0.3307800066689980  0.5019849671005552  0.5831753306605217   T   T   T
  0.6666729313044011  0.0016935612937872  0.5829287874241699   T   T   T
  0.6666638786025347  0.5035297745092189  0.5860407629439882   T   T   T
  1.0003778954435247  0.0020888857321821  0.5829146665061286   T   T   T
  1.0025483108693614  0.5019838393193743  0.5831744600017702   T   T   T
  0.3334417257750309  0.1677274207466966  0.5279653190583059   T   T   T
  0.3335411545556748  0.6669455164752887  0.5279746073818867   T   T   T
  0.6666666638293609  0.1678242900997781  0.5280196660677359   T   T   T
  0.6666661257017886  0.6644561995089273  0.5285975575014998   T   T   T
  0.9998911001477178  0.1677267851948624  0.5279654094490887   T   T   T
  0.9997884851957943  0.6669468139234677  0.5279747485666932   T   T   T
  0.3333331481892897  0.3333334587597487  0.4722222226546229   F   F   F
  0.3333331481892897  0.8333334587597487  0.4722222226546229   F   F   F
  0.6666664815226231  0.3333334587597487  0.4722222226546229   F   F   F
  0.6666664815226231  0.8333334587597487  0.4722222226546229   F   F   F
  0.9999998148559561  0.3333334587597487  0.4722222226546229   F   F   F
  0.9999998148559563  0.8333334587597487  0.4722222226546229   F   F   F
  0.3333331481892892  0.0000001254264155  0.4166666670990671   F   F   F
  0.3333331481892892  0.5000001254264155  0.4166666670990673   F   F   F
  0.6666664815226225  0.0000001254264155  0.4166666670990671   F   F   F
  0.6666664815226224  0.5000001254264155  0.4166666670990673   F   F   F
  0.9999998148559557  0.0000001254264155  0.4166666670990671   F   F   F
  0.9999998148559557  0.5000001254264155  0.4166666670990673   F   F   F
  0.6666660319274207  0.4928343302407012  0.6315747959615799   T   T   T
  0.6666730482925416  0.4997710272276588  0.6595788352275215   T   T   T
