Ag  H Pd  O 
 1.0000000000000000
     8.4012246744318553    0.0000000000000000    0.0000000000000006
     0.0000000000000016    9.7556249397631500    0.0778334351619916
     0.0000000000000000    0.0000000000000000   41.2743430770740716
 Ag  H   Pd  O  
  24   1  24   1
Selective dynamics
Direct
  0.1660266053995186  0.2520634869543867  0.5854035495228889   T   T   T
  0.1659469082131019  0.7528121809024514  0.5854480262104055   T   T   T
  0.4987274035275882  0.2515235827472572  0.5848029716235342   T   T   T
  0.4982102720023207  0.7535823309193069  0.5848337926034609   T   T   T
  0.8333581631932797  0.2516866706324277  0.5850184219773331   T   T   T
  0.8339162858131782  0.7535147936241740  0.5850526900905806   T   T   T
  0.1660398274444463  0.4171883320718249  0.5279221927218454   T   T   T
  0.1665860428752519  0.9171907851645058  0.5279915975017303   T   T   T
  0.5010322444940930  0.4182075233342132  0.5283945221027627   T   T   T
  0.5002438253583592  0.9173236827303282  0.5278471131923779   T   T   T
  0.8315962865702194  0.4181574793465967  0.5284341318588990   T   T   T
  0.8330187000717730  0.9170668181334222  0.5278951571748126   T   T   T
  0.1666664815226225  0.0833334535709418  0.4722222217898217   F   F   F
  0.1666664815226226  0.5833334535709418  0.4722222217898217   F   F   F
  0.4999998148559556  0.0833334535709418  0.4722222217898217   F   F   F
  0.4999998148559556  0.5833334535709418  0.4722222217898217   F   F   F
  0.8333331481892892  0.0833334535709418  0.4722222217898217   F   F   F
  0.8333331481892892  0.5833334535709418  0.4722222217898217   F   F   F
  0.1666664815226225  0.2500001202376085  0.4166666662342661   F   F   F
  0.1666664815226226  0.7500001202376085  0.4166666662342661   F   F   F
  0.4999998148559556  0.2500001202376085  0.4166666662342661   F   F   F
  0.4999998148559556  0.7500001202376085  0.4166666662342661   F   F   F
  0.8333331481892892  0.2500001202376085  0.4166666662342661   F   F   F
  0.8333331481892892  0.7500001202376085  0.4166666662342661   F   F   F
  0.7660310003415537  0.4967971161793396  0.6471786778360898   T   T   T
  0.3327754290834049  0.0038857226045176  0.5831909960457824   T   T   T
  0.3303632668587332  0.5040828094800490  0.5830019213837807   T   T   T
  0.6664019461585928  0.0035489064151314  0.5831626261973195   T   T   T
  0.6665531546133805  0.5053512425014069  0.5861964786917178   T   T   T
  0.9998482997847808  0.0039044942782809  0.5832390832897776   T   T   T
  1.0008109088770993  0.5038861003220477  0.5833925675857216   T   T   T
  0.3329989118579230  0.1692235041312322  0.5278728076065767   T   T   T
  0.3332160555182755  0.6687089373627881  0.5279066207493418   T   T   T
  0.6665901660547235  0.1691086879779417  0.5278675652414314   T   T   T
  0.6664511136768191  0.6660764983865747  0.5285829446795309   T   T   T
  0.9997788772935925  0.1691005181362291  0.5279190867375818   T   T   T
  0.9996147568304252  0.6686071220253952  0.5279930892849538   T   T   T
  0.3333331481892897  0.3333334587597487  0.4722222226546229   F   F   F
  0.3333331481892897  0.8333334587597487  0.4722222226546229   F   F   F
  0.6666664815226231  0.3333334587597487  0.4722222226546229   F   F   F
  0.6666664815226231  0.8333334587597487  0.4722222226546229   F   F   F
  0.9999998148559561  0.3333334587597487  0.4722222226546229   F   F   F
  0.9999998148559563  0.8333334587597487  0.4722222226546229   F   F   F
  0.3333331481892892  0.0000001254264155  0.4166666670990671   F   F   F
  0.3333331481892892  0.5000001254264155  0.4166666670990673   F   F   F
  0.6666664815226225  0.0000001254264155  0.4166666670990671   F   F   F
  0.6666664815226224  0.5000001254264155  0.4166666670990673   F   F   F
  0.9999998148559557  0.0000001254264155  0.4166666670990671   F   F   F
  0.9999998148559557  0.5000001254264155  0.4166666670990673   F   F   F
  0.6582403338350226  0.4852860919739029  0.6382412828382852   T   T   T
