Ag  H Pd  O 
 1.0000000000000000
     8.5013114179517117    0.0000000000000000    0.0000000000000005
     4.2506557089758541    7.3623516534288900    0.0000000000000005
     0.0000000000000000    0.0000000000000000   48.5890419431158733
 Ag  H   Pd  O  
  26   1  10   1
Selective dynamics
Direct
  0.6666666666666671  0.6666666666666666  0.4761904911784334   F   F   F
  0.3333332867041333  0.3333332867041335  0.4761904711944905   F   F   F
  0.3333332867041333  0.9999999533708002  0.4761904711944905   F   F   F
  0.9999999533707997  0.3333332867041335  0.4761904711944905   F   F   F
  0.9999999533707999  0.9999999533708002  0.4761904711944905   F   F   F
  0.6666667599250664  0.3333332867041335  0.4761904711944905   F   F   F
  0.6666667599250664  0.9999999533708002  0.4761904711944905   F   F   F
  0.4444444444444445  0.4444444444444445  0.5238095387974809   F   F   F
  0.6677131870326629  0.6676839667296721  0.6199852156863074   T   T   T
  0.2235515445304204  0.2216418469233563  0.5711961889246973   T   T   T
  0.2235340429846687  0.8880456984805755  0.5717777150246398   T   T   T
  0.8877526755271209  0.2222248637865896  0.5709502400947140   T   T   T
  0.8855049462822588  0.8918023955133398  0.5712782828268078   T   T   T
  0.5543060264203117  0.5567369985962316  0.5718165908282694   T   T   T
  0.1111110644819112  0.7777777311485777  0.5238095188135381   F   F   F
  0.7777777311485781  0.7777777311485777  0.5238095188135381   F   F   F
  0.3321587911270447  0.3354422379595973  0.6197717281968204   T   T   T
  0.3338217894274544  0.9992918551165971  0.6200249445414875   T   T   T
  0.9996123140680350  0.3349966776783717  0.6205861374162452   T   T   T
  0.9998658002191874  0.9983985507078723  0.6203472358352123   T   T   T
  0.2244800619164381  0.5548613018968417  0.5715272151177143   T   T   T
  0.8881411771287741  0.5554561915221519  0.5710874561695174   T   T   T
  0.4444445377028442  0.1111110644819113  0.5238095188135381   F   F   F
  0.4444445377028442  0.7777777311485780  0.5238095188135381   F   F   F
  0.6662956048164974  0.3334742391397141  0.6199059662091075   T   T   T
  0.6671161484947604  0.9992778895235014  0.6196069337292478   T   T   T
  0.4289600857879411  0.6665373294373667  0.6699176660291671   T   T   T
  0.3333332867041338  0.6666667599250664  0.4761904711944905   F   F   F
  0.9999999533708005  0.6666667599250664  0.4761904711944905   F   F   F
  0.5564690599851428  0.2216101422660268  0.5715767467920674   T   T   T
  0.5546955178927596  0.8896794986637913  0.5717296112258424   T   T   T
  0.1111110644819112  0.4444445377028443  0.5238095188135381   F   F   F
  0.1111110644819112  1.1111112043695111  0.5238095188135381   F   F   F
  0.7777777311485784  0.4444445377028443  0.5238095188135381   F   F   F
  0.7777777311485777  1.1111112043695111  0.5238095188135381   F   F   F
  0.3306595102997081  0.6674902568856510  0.6204228572285881   T   T   T
  0.9989770765430446  0.6664330911453967  0.6176539339151813   T   T   T
  0.3180932798732867  0.6656490787974991  0.6645813406448121   T   T   T
