Ag Pd  C  O 
 1.0000000000000000
     8.3348369443761747    0.0000000000000000    0.0000000000000005
     4.1674184721880891    7.2181805302308319    0.0000000000000005
     0.0000000000000000    0.0000000000000000   47.6375610737127033
 Ag  Pd  C   O  
   9  27   1   1
Selective dynamics
Direct
  0.6666666666666667  0.6666666666666667  0.4761904572003339   F   F   F
  0.4444444444444448  0.4444444444444445  0.5238095048193816   F   F   F
  0.4444444444444446  1.1111111111111112  0.5238095048193816   F   F   F
  1.0004959546515542  0.6674785060561041  0.6221993259483392   T   T   T
  0.3314398666876854  0.6679945883433481  0.6225628790183123   T   T   T
  0.2230386671911991  0.2220641127840661  0.5717143182105394   T   T   T
  0.2249911232055154  0.8857424128350040  0.5724795891285264   T   T   T
  0.8887972773087067  0.2225843852205045  0.5716578113183391   T   T   T
  0.8896334316666931  0.8870990893331157  0.5723299942523190   T   T   T
  0.3333333924137755  0.3333333924137756  0.4761904825205235   F   F   F
  0.3333333924137756  1.0000000590804423  0.4761904825205235   F   F   F
  1.0000000590804421  0.3333333924137756  0.4761904825205235   F   F   F
  1.0000000590804421  1.0000000590804423  0.4761904825205235   F   F   F
  0.6666665485057828  0.3333333924137756  0.4761904825205235   F   F   F
  0.6666665485057829  1.0000000590804423  0.4761904825205235   F   F   F
  0.3333333924137759  0.6666665485057824  0.4761904825205235   F   F   F
  1.0000000590804428  0.6666665485057824  0.4761904825205235   F   F   F
  0.5568703968212266  0.5551198550654910  0.5720555493818583   T   T   T
  0.1111111701915532  0.1111111701915532  0.5238095301395711   F   F   F
  0.1111111701915533  0.7777778368582199  0.5238095301395711   F   F   F
  0.7777778368582201  0.1111111701915532  0.5238095301395711   F   F   F
  0.7777778368582201  0.7777778368582199  0.5238095301395711   F   F   F
  0.3357583709092535  0.3316782098866299  0.6193521434085122   T   T   T
  0.3311858607017374  1.0062667958102884  0.6203897898496435   T   T   T
  1.0017834749791668  0.3319074625666807  0.6198417206421951   T   T   T
  0.9971407221796367  1.0067760695610317  0.6206523417123007   T   T   T
  0.2230055352396354  0.5541470520857257  0.5719510166010728   T   T   T
  0.8874809746153713  0.5564837793523241  0.5716128445115330   T   T   T
  0.4444443262835602  0.7777778368582199  0.5238095301395711   F   F   F
  0.6670669672227354  0.3318859941498584  0.6195953771748229   T   T   T
  0.6628861135066610  1.0060756694949453  0.6198642108452613   T   T   T
  0.5569066424334931  0.2221046755547129  0.5718744686932679   T   T   T
  0.5583108992479318  0.8856900422038667  0.5721829306698821   T   T   T
  0.1111111701915534  0.4444443262835603  0.5238095301395711   F   F   F
  0.7777778368582202  0.4444443262835603  0.5238095301395711   F   F   F
  0.6653780401299286  0.6685454666935015  0.6206588393807737   T   T   T
  0.6664043083066539  0.6679254432779895  0.6595783694331492   T   T   T
  0.6670986876932492  0.6662882854706450  0.6839773907854535   T   T   T
