Pd 
 1.0000000000000000
     8.2582115393440390    0.0000000000000000    0.0000000000000006
    -4.1291057696720213    7.1518209828977302    0.0000000000000006
     0.0000000000000000    0.0000000000000000   40.4568089187138042
 Pd 
  36
Selective dynamics
Direct
  0.0000003242213467  0.0000001621106736  0.4166666666666669   F   F   F
  0.0000003242213467  0.3333334954440070  0.4166666666666669   F   F   F
  0.0000003242213466  0.6666668287773403  0.4166666666666669   F   F   F
  0.3333336575546800  0.0000001621106736  0.4166666666666669   F   F   F
  0.3333336575546800  0.3333334954440070  0.4166666666666669   F   F   F
  0.3333336575546799  0.6666668287773403  0.4166666666666669   F   F   F
  0.6666669908880133  0.0000001621106736  0.4166666666666669   F   F   F
  0.6666669908880132  0.3333334954440070  0.4166666666666669   F   F   F
  0.6666669908880132  0.6666668287773403  0.4166666666666669   F   F   F
  0.1111114353324573  0.2222223843328956  0.4722222222222223   F   F   F
  0.1111114353324573  0.5555557176662289  0.4722222222222223   F   F   F
  0.1111114353324574  0.8888890509995623  0.4722222222222223   F   F   F
  0.4444447686657906  0.2222223843328956  0.4722222222222223   F   F   F
  0.4444447686657906  0.5555557176662289  0.4722222222222223   F   F   F
  0.4444447686657906  0.8888890509995623  0.4722222222222223   F   F   F
  0.7777781019991239  0.2222223843328956  0.4722222222222223   F   F   F
  0.7777781019991239  0.5555557176662289  0.4722222222222223   F   F   F
  0.7777781019991239  0.8888890509995623  0.4722222222222223   F   F   F
  0.2222215639252617  0.1111105656987047  0.5274818383598645   T   T   T
  0.2222208245794481  0.4444436353056981  0.5274818178603459   T   T   T
  0.2222210390697192  0.7777768463752933  0.5274818330544154   T   T   T
  0.5555551305191744  0.1111110003209868  0.5274818748294748   T   T   T
  0.5555550015370186  0.4444434827736087  0.5274818397896727   T   T   T
  0.5555546495011815  0.7777772476348812  0.5274817856871965   T   T   T
  0.8888879665851345  0.1111110454653247  0.5274818382436830   T   T   T
  0.8888878524181075  0.4444435101253092  0.5274819091015830   T   T   T
  0.8888880771738219  0.7777767280198998  0.5274818469848918   T   T   T
  0.0000012925022537  0.0000012932874437  0.5836795964983250   T   T   T
 -0.0000011080335674  0.3333350948210639  0.5836803643379256   T   T   T
 -0.0000003794400011  0.6666650743069485  0.5836803051696839   T   T   T
  0.3333354706090513  0.0000019114463378  0.5836799925894119   T   T   T
  0.3333349530161988  0.3333338530655164  0.5836796633850758   T   T   T
  0.3333323242592112  0.6666671829233005  0.5836794783338284   T   T   T
  0.6666682871949913  0.0000041302555219  0.5836798116243678   T   T   T
  0.6666692979812233  0.3333345552773406  0.5836808014042935   T   T   T
  0.6666685646544657  0.6666659648877907  0.5836795608911667   T   T   T
