Ag Pd 
 1.0000000000000000
     8.5013114179517117    0.0000000000000000    0.0000000000000005
     4.2506557089758541    7.3623516534288900    0.0000000000000005
     0.0000000000000000    0.0000000000000000   48.5890419431158733
 Ag  Pd 
  26  10
Selective dynamics
Direct
  0.6666666666666671  0.6666666666666666  0.4761904911784334   F   F   F
  0.3333332867041333  0.3333332867041335  0.4761904711944905   F   F   F
  0.3333332867041333  0.9999999533708002  0.4761904711944905   F   F   F
  0.9999999533707997  0.3333332867041335  0.4761904711944905   F   F   F
  0.9999999533707999  0.9999999533708002  0.4761904711944905   F   F   F
  0.6666667599250664  0.3333332867041335  0.4761904711944905   F   F   F
  0.6666667599250664  0.9999999533708002  0.4761904711944905   F   F   F
  0.4444444444444445  0.4444444444444445  0.5238095387974809   F   F   F
  0.6669445530957354  0.6672024142479489  0.6203774010513992   T   T   T
  0.2237802701020224  0.2214830329645565  0.5714270207326444   T   T   T
  0.2214902690432793  0.8913600275524541  0.5715031640086726   T   T   T
  0.8879001334550400  0.2219632391349221  0.5711252987985580   T   T   T
  0.8854436063465997  0.8923812023509948  0.5713903082495969   T   T   T
  0.5573510696048583  0.5551185784349725  0.5715706449408687   T   T   T
  0.1111110644819112  0.7777777311485777  0.5238095188135381   F   F   F
  0.7777777311485781  0.7777777311485777  0.5238095188135381   F   F   F
  0.3322762851070187  0.3365452486772252  0.6203253546428809   T   T   T
  0.3331358161784642  0.9985164129182785  0.6203481479419205   T   T   T
  0.9995861836788762  0.3349326010225323  0.6208052360197958   T   T   T
  1.0017240468452131  0.9968312059859947  0.6210900678433376   T   T   T
  0.2233667468707413  0.5526615869994975  0.5711334379012069   T   T   T
  0.8879461166085121  0.5551534417104926  0.5712395484608528   T   T   T
  0.4444445377028442  0.1111110644819113  0.5238095188135381   F   F   F
  0.4444445377028442  0.7777777311485780  0.5238095188135381   F   F   F
  0.6655814636635616  0.3340693910499039  0.6200793795588633   T   T   T
  0.6673247154720628  0.9989002935562423  0.6197204921837620   T   T   T
  0.3333332867041338  0.6666667599250664  0.4761904711944905   F   F   F
  0.9999999533708005  0.6666667599250664  0.4761904711944905   F   F   F
  0.5562746779272764  0.2215363408915630  0.5717664581463429   T   T   T
  0.5548045249133932  0.8893629165600623  0.5719080293743763   T   T   T
  0.1111110644819112  0.4444445377028443  0.5238095188135381   F   F   F
  0.1111110644819112  1.1111112043695111  0.5238095188135381   F   F   F
  0.7777777311485784  0.4444445377028443  0.5238095188135381   F   F   F
  0.7777777311485777  1.1111112043695111  0.5238095188135381   F   F   F
  0.3312458330973549  0.6674032541450448  0.6176597175526958   T   T   T
  1.0011310093774375  0.6663063874757535  0.6175929417586040   T   T   T
