Ag  H Pd  O 
 1.0000000000000000
     8.4012246744318553    0.0000000000000000    0.0000000000000006
     0.0000000000000016    9.7556249397631500    0.0778334351619916
     0.0000000000000000    0.0000000000000000   41.2743430770740716
 Ag  H   Pd  O  
  24   1  24   1
Selective dynamics
Direct
  0.1645431944078626  0.2518784179218415  0.5848295683551031   T   T   T
  0.1661230574772316  0.7520025381651462  0.5855003978828084   T   T   T
  0.4986091157391527  0.2509452111944422  0.5866403875083047   T   T   T
  0.4998212431349060  0.7518699261863084  0.5855615806144492   T   T   T
  0.8333623183530268  0.2518824515927554  0.5849796300672785   T   T   T
  0.8331830019312013  0.7519157706980298  0.5855125567085926   T   T   T
  0.1665513569361037  0.4166275848867762  0.5279547115677276   T   T   T
  0.1666703355045030  0.9166083810827822  0.5280176801551421   T   T   T
  0.4998863578657746  0.4157877478691213  0.5283798311282274   T   T   T
  0.4998916905087077  0.9162521713697755  0.5279877596252238   T   T   T
  0.8330909958662847  0.4165892265437640  0.5280087365236547   T   T   T
  0.8329054521551859  0.9165867709736064  0.5280532751815039   T   T   T
  0.1666664815226225  0.0833334535709418  0.4722222217898217   F   F   F
  0.1666664815226226  0.5833334535709418  0.4722222217898217   F   F   F
  0.4999998148559556  0.0833334535709418  0.4722222217898217   F   F   F
  0.4999998148559556  0.5833334535709418  0.4722222217898217   F   F   F
  0.8333331481892892  0.0833334535709418  0.4722222217898217   F   F   F
  0.8333331481892892  0.5833334535709418  0.4722222217898217   F   F   F
  0.1666664815226225  0.2500001202376085  0.4166666662342661   F   F   F
  0.1666664815226226  0.7500001202376085  0.4166666662342661   F   F   F
  0.4999998148559556  0.2500001202376085  0.4166666662342661   F   F   F
  0.4999998148559556  0.7500001202376085  0.4166666662342661   F   F   F
  0.8333331481892892  0.2500001202376085  0.4166666662342661   F   F   F
  0.8333331481892892  0.7500001202376085  0.4166666662342661   F   F   F
  0.6027242979141525  0.2523076795350443  0.6458968645872231   T   T   T
  0.3323939561186258  0.0017782461868959  0.5829602267090850   T   T   T
  0.3325900966501206  0.5050128707086370  0.5829462983424317   T   T   T
  0.6666124486638464  0.0020838100074340  0.5830982600731291   T   T   T
  0.6664370049741105  0.5044896576733097  0.5831506182409288   T   T   T
  0.9994610999955323  0.0033838350907476  0.5831043712027261   T   T   T
  0.9995713880206331  0.5042233801305399  0.5830351480857616   T   T   T
  0.3340944480066807  0.1681922026586390  0.5283210819847421   T   T   T
  0.3333428770081137  0.6676123831954681  0.5280857113476204   T   T   T
  0.6653729785754006  0.1681374573741610  0.5283499954773656   T   T   T
  0.6666000165991353  0.6674350294485463  0.5281470332605156   T   T   T
  0.9996464916982706  0.1673098824889745  0.5279004728561676   T   T   T
  0.9999220823652948  0.6677736459997027  0.5280655596564612   T   T   T
  0.3333331481892897  0.3333334587597487  0.4722222226546229   F   F   F
  0.3333331481892897  0.8333334587597487  0.4722222226546229   F   F   F
  0.6666664815226231  0.3333334587597487  0.4722222226546229   F   F   F
  0.6666664815226231  0.8333334587597487  0.4722222226546229   F   F   F
  0.9999998148559561  0.3333334587597487  0.4722222226546229   F   F   F
  0.9999998148559563  0.8333334587597487  0.4722222226546229   F   F   F
  0.3333331481892892  0.0000001254264155  0.4166666670990671   F   F   F
  0.3333331481892892  0.5000001254264155  0.4166666670990673   F   F   F
  0.6666664815226225  0.0000001254264155  0.4166666670990671   F   F   F
  0.6666664815226224  0.5000001254264155  0.4166666670990673   F   F   F
  0.9999998148559557  0.0000001254264155  0.4166666670990671   F   F   F
  0.9999998148559557  0.5000001254264155  0.4166666670990673   F   F   F
  0.4904814604718487  0.2621353058964431  0.6396765620488630   T   T   T
