Ag 
 1.0000000000000000
     8.5983832630900725    0.0000000000000000    0.3096632092506426
     4.2936155075093092    7.4496349315025547    0.3096632092506426
     0.0000000000000000    0.0000000000000000   39.8433329235828140
 Ag 
  36
Selective dynamics
Direct
  0.1568184343677597  0.1568186235939041  0.5886288856909307   T   T   T
  0.1568244096233934  0.4901538945343322  0.5886289119485881   T   T   T
  0.1568173399779378  0.8234876158932549  0.5886294701050974   T   T   T
  0.4901539481675722  0.1568245297581533  0.5886289249524621   T   T   T
  0.4901509596588238  0.4901506508530028  0.5886294236007040   T   T   T
  0.4901493865566247  0.8234876202519739  0.5886292260880357   T   T   T
  0.8234875156498667  0.1568175087726202  0.5886294884188874   T   T   T
  0.8234876925459521  0.4901492840725436  0.5886292621249160   T   T   T
  0.8234900378724683  0.8234900301481692  0.5886293793502680   T   T   T
  0.2745407539005958  0.2745407733383910  0.5291448702046783   T   T   T
  0.2745400652790452  0.6078753260156182  0.5291446922289172   T   T   T
  0.2745397054679034  0.9412010218461716  0.5291446965534619   T   T   T
  0.6078753831041851  0.2745400178080025  0.5291446932176179   T   T   T
  0.6078718354863153  0.6078717479996844  0.5291446922460912   T   T   T
  0.6078769533733250  0.9412028483649539  0.5291447222533436   T   T   T
  0.9412010237104004  0.2745396758701891  0.5291447126147533   T   T   T
  0.9412028702030594  0.6078769420136128  0.5291447229483413   T   T   T
  0.9412056018637217  0.9412056687156003  0.5291445841385927   T   T   T
  0.0588233949072055  0.0588233949072054  0.4705882352941176   F   F   F
  0.0588233949072055  0.3921567282405387  0.4705882352941173   F   F   F
  0.0588233949072055  0.7254900615738720  0.4705882352941176   F   F   F
  0.3921567282405388  0.0588233949072054  0.4705882352941176   F   F   F
  0.3921567282405387  0.3921567282405387  0.4705882352941176   F   F   F
  0.3921567282405388  0.7254900615738720  0.4705882352941173   F   F   F
  0.7254900615738720  0.0588233949072054  0.4705882352941176   F   F   F
  0.7254900615738721  0.3921567282405387  0.4705882352941173   F   F   F
  0.7254900615738720  0.7254900615738720  0.4705882352941176   F   F   F
  0.1764704537307346  0.1764704537307344  0.4117647058823530   F   F   F
  0.1764704537307346  0.5098037870640678  0.4117647058823530   F   F   F
  0.1764704537307346  0.8431371203974013  0.4117647058823529   F   F   F
  0.5098037870640679  0.1764704537307344  0.4117647058823530   F   F   F
  0.5098037870640678  0.5098037870640678  0.4117647058823530   F   F   F
  0.5098037870640678  0.8431371203974013  0.4117647058823530   F   F   F
  0.8431371203974012  0.1764704537307344  0.4117647058823530   F   F   F
  0.8431371203974014  0.5098037870640678  0.4117647058823530   F   F   F
  0.8431371203974007  0.8431371203974013  0.4117647058823529   F   F   F
