Pd 
 1.0000000000000000
     8.2582115393440390    0.0000000000000000    0.0000000000000006
    -4.1291057696720213    7.1518209828977302    0.0000000000000006
     0.0000000000000000    0.0000000000000000   40.4568089187138042
 Pd 
  36
Selective dynamics
Direct
  0.0000003242213467  0.0000001621106736  0.4166666666666669   F   F   F
  0.0000003242213467  0.3333334954440070  0.4166666666666669   F   F   F
  0.0000003242213466  0.6666668287773403  0.4166666666666669   F   F   F
  0.3333336575546800  0.0000001621106736  0.4166666666666669   F   F   F
  0.3333336575546800  0.3333334954440070  0.4166666666666669   F   F   F
  0.3333336575546799  0.6666668287773403  0.4166666666666669   F   F   F
  0.6666669908880133  0.0000001621106736  0.4166666666666669   F   F   F
  0.6666669908880132  0.3333334954440070  0.4166666666666669   F   F   F
  0.6666669908880132  0.6666668287773403  0.4166666666666669   F   F   F
  0.1111114353324573  0.2222223843328956  0.4722222222222223   F   F   F
  0.1111114353324573  0.5555557176662289  0.4722222222222223   F   F   F
  0.1111114353324574  0.8888890509995623  0.4722222222222223   F   F   F
  0.4444447686657906  0.2222223843328956  0.4722222222222223   F   F   F
  0.4444447686657906  0.5555557176662289  0.4722222222222223   F   F   F
  0.4444447686657906  0.8888890509995623  0.4722222222222223   F   F   F
  0.7777781019991239  0.2222223843328956  0.4722222222222223   F   F   F
  0.7777781019991239  0.5555557176662289  0.4722222222222223   F   F   F
  0.7777781019991239  0.8888890509995623  0.4722222222222223   F   F   F
  0.2222212745972502  0.1111104146077298  0.5274770755359850   T   T   T
  0.2222209610006841  0.4444436314729489  0.5274770303524807   T   T   T
  0.2222212252496196  0.7777770315047126  0.5274770441309898   T   T   T
  0.5555548119028436  0.1111105237948677  0.5274770695931426   T   T   T
  0.5555546994106154  0.4444436309867337  0.5274769985617589   T   T   T
  0.5555546436724595  0.7777772664032074  0.5274770212323086   T   T   T
  0.8888881101467077  0.1111107547926050  0.5274770811981772   T   T   T
  0.8888881648009611  0.4444436432963389  0.5274770467359443   T   T   T
  0.8888882164211079  0.7777771937150852  0.5274770557551079   T   T   T
  0.0000015607691877  0.0000016640741325  0.5836781110226698   T   T   T
  0.0000003366017479  0.3333338762954472  0.5836780290626141   T   T   T
  0.0000014957301913  0.6666678228070797  0.5836778788928118   T   T   T
  0.3333341024898372  0.0000010147568785  0.5836780748231508   T   T   T
  0.3333331414095462  0.3333329615228628  0.5836776944519125   T   T   T
  0.3333333556173188  0.6666679635835482  0.5836776232707183   T   T   T
  0.6666682917352909  0.0000023772049182  0.5836778997200390   T   T   T
  0.6666680997548535  0.3333335350987656  0.5836778410687204   T   T   T
  0.6666685519793422  0.6666681893239244  0.5836774927639747   T   T   T
