Ag Pd  C  O 
 1.0000000000000000
     8.3348369443761747    0.0000000000000000    0.0000000000000005
     4.1674184721880891    7.2181805302308319    0.0000000000000005
     0.0000000000000000    0.0000000000000000   47.6375610737127033
 Ag  Pd  C   O  
   9  27   1   1
Selective dynamics
Direct
  0.6666666666666667  0.6666666666666667  0.4761904572003339   F   F   F
  0.4444444444444448  0.4444444444444445  0.5238095048193816   F   F   F
  0.4444444444444446  1.1111111111111112  0.5238095048193816   F   F   F
  0.9981199637880749  0.6668788876131805  0.6221999634960432   T   T   T
  0.3360384565443917  0.6644587509903017  0.6225782779556399   T   T   T
  0.2228236590759586  0.2224785248780378  0.5717139113573734   T   T   T
  0.2248242809274089  0.8858989094843154  0.5724856926024078   T   T   T
  0.8890768417262888  0.2224281623692153  0.5716661508719891   T   T   T
  0.8900642231227494  0.8873587136047559  0.5723170253452204   T   T   T
  0.3333333924137755  0.3333333924137756  0.4761904825205235   F   F   F
  0.3333333924137756  1.0000000590804423  0.4761904825205235   F   F   F
  1.0000000590804421  0.3333333924137756  0.4761904825205235   F   F   F
  1.0000000590804421  1.0000000590804423  0.4761904825205235   F   F   F
  0.6666665485057828  0.3333333924137756  0.4761904825205235   F   F   F
  0.6666665485057829  1.0000000590804423  0.4761904825205235   F   F   F
  0.3333333924137759  0.6666665485057824  0.4761904825205235   F   F   F
  1.0000000590804428  0.6666665485057824  0.4761904825205235   F   F   F
  0.5554344452533859  0.5553506601582027  0.5717437803796879   T   T   T
  0.1111111701915532  0.1111111701915532  0.5238095301395711   F   F   F
  0.1111111701915533  0.7777778368582199  0.5238095301395711   F   F   F
  0.7777778368582201  0.1111111701915532  0.5238095301395711   F   F   F
  0.7777778368582201  0.7777778368582199  0.5238095301395711   F   F   F
  0.3370685684430480  0.3292060518647580  0.6192868081056933   T   T   T
  0.3358003390067506  1.0035200649096485  0.6200464746708939   T   T   T
  0.9999885268207744  0.3335839401439694  0.6198626726695007   T   T   T
  0.9972439764301261  1.0073306849809740  0.6207382571847937   T   T   T
  0.2235433063489611  0.5548599957520420  0.5721346992635011   T   T   T
  0.8893628935806906  0.5555409315096123  0.5711303950066190   T   T   T
  0.4444443262835602  0.7777778368582199  0.5238095301395711   F   F   F
  0.6694471694354506  0.3319312572895582  0.6194405396313699   T   T   T
  0.6640498698989595  1.0024868754886667  0.6197354652954483   T   T   T
  0.5566823554109476  0.2224133022630899  0.5718770850777257   T   T   T
  0.5576443398826176  0.8872276827333999  0.5716845188938550   T   T   T
  0.1111111701915534  0.4444443262835603  0.5238095301395711   F   F   F
  0.7777778368582202  0.4444443262835603  0.5238095301395711   F   F   F
  0.6699545254889087  0.6667377173018261  0.6188417030063470   T   T   T
  0.3274591831283068  0.6854065138798385  0.6668094030737092   T   T   T
  0.3375633496954404  0.6619458651474739  0.6905914489464253   T   T   T
