Pd  C  O 
 1.0000000000000000
     8.2582115393440390    0.0000000000000000    0.0000000000000006
    -4.1291057696720213    7.1518209828977302    0.0000000000000006
     0.0000000000000000    0.0000000000000000   40.4568089187138042
 Pd  C   O  
  36   1   1
Selective dynamics
Direct
  0.0000003242213467  0.0000001621106736  0.4166666666666669   F   F   F
  0.0000003242213467  0.3333334954440070  0.4166666666666669   F   F   F
  0.0000003242213466  0.6666668287773403  0.4166666666666669   F   F   F
  0.3333336575546800  0.0000001621106736  0.4166666666666669   F   F   F
  0.3333336575546800  0.3333334954440070  0.4166666666666669   F   F   F
  0.3333336575546799  0.6666668287773403  0.4166666666666669   F   F   F
  0.6666669908880133  0.0000001621106736  0.4166666666666669   F   F   F
  0.6666669908880132  0.3333334954440070  0.4166666666666669   F   F   F
  0.6666669908880132  0.6666668287773403  0.4166666666666669   F   F   F
  0.1111114353324573  0.2222223843328956  0.4722222222222223   F   F   F
  0.1111114353324573  0.5555557176662289  0.4722222222222223   F   F   F
  0.1111114353324574  0.8888890509995623  0.4722222222222223   F   F   F
  0.4444447686657906  0.2222223843328956  0.4722222222222223   F   F   F
  0.4444447686657906  0.5555557176662289  0.4722222222222223   F   F   F
  0.4444447686657906  0.8888890509995623  0.4722222222222223   F   F   F
  0.7777781019991239  0.2222223843328956  0.4722222222222223   F   F   F
  0.7777781019991239  0.5555557176662289  0.4722222222222223   F   F   F
  0.7777781019991239  0.8888890509995623  0.4722222222222223   F   F   F
  0.2221436644341759  0.1111858929113756  0.5274275600173253   T   T   T
  0.2221277963318433  0.4443964014950655  0.5274887969786459   T   T   T
  0.2221440146038210  0.7776240064815413  0.5274274443604551   T   T   T
  0.5557064907069736  0.1111857938915616  0.5274274879679774   T   T   T
  0.5565131486658872  0.4463648940106741  0.5281440333860704   T   T   T
  0.5565150670941559  0.7768139806459131  0.5281438971137891   T   T   T
  0.8889337189622161  0.1112019829309196  0.5274887850300655   T   T   T
  0.8889330648340401  0.4443974527113110  0.5274886845789846   T   T   T
  0.8869649123589087  0.7768164166073229  0.5281441345861383   T   T   T
  0.0022334205305875  0.0019180677254807  0.5836442966693267   T   T   T
  0.0000015822536519  0.3333336140757265  0.5836535228760430   T   T   T
  0.0022343396887553  0.6669823068712848  0.5836431760295133   T   T   T
  0.3333333989000324  0.0000016554210408  0.5837601048704341   T   T   T
  0.3314154403144365  0.3311000712397208  0.5836442060688918   T   T   T
  0.3314152170915825  0.6669835821919334  0.5836428554814441   T   T   T
  0.6663509767548720  0.0019188235810149  0.5836431141203168   T   T   T
  0.6663532609919287  0.3310999368844089  0.5836429870343428   T   T   T
  0.6666648634115311  0.6666647974897856  0.5866598622334104   T   T   T
  0.6666694682943352  0.6666694661952610  0.6326364262336379   T   T   T
  0.6666645993087098  0.6666645645612586  0.6611882398917491   T   T   T
