Pd  C  O 
 1.0000000000000000
     8.2582115393440390    0.0000000000000000    0.0000000000000006
    -4.1291057696720213    7.1518209828977302    0.0000000000000006
     0.0000000000000000    0.0000000000000000   40.4568089187138042
 Pd  C   O  
  36   1   1
Selective dynamics
Direct
  0.0000003242213467  0.0000001621106736  0.4166666666666669   F   F   F
  0.0000003242213467  0.3333334954440070  0.4166666666666669   F   F   F
  0.0000003242213466  0.6666668287773403  0.4166666666666669   F   F   F
  0.3333336575546800  0.0000001621106736  0.4166666666666669   F   F   F
  0.3333336575546800  0.3333334954440070  0.4166666666666669   F   F   F
  0.3333336575546799  0.6666668287773403  0.4166666666666669   F   F   F
  0.6666669908880133  0.0000001621106736  0.4166666666666669   F   F   F
  0.6666669908880132  0.3333334954440070  0.4166666666666669   F   F   F
  0.6666669908880132  0.6666668287773403  0.4166666666666669   F   F   F
  0.1111114353324573  0.2222223843328956  0.4722222222222223   F   F   F
  0.1111114353324573  0.5555557176662289  0.4722222222222223   F   F   F
  0.1111114353324574  0.8888890509995623  0.4722222222222223   F   F   F
  0.4444447686657906  0.2222223843328956  0.4722222222222223   F   F   F
  0.4444447686657906  0.5555557176662289  0.4722222222222223   F   F   F
  0.4444447686657906  0.8888890509995623  0.4722222222222223   F   F   F
  0.7777781019991239  0.2222223843328956  0.4722222222222223   F   F   F
  0.7777781019991239  0.5555557176662289  0.4722222222222223   F   F   F
  0.7777781019991239  0.8888890509995623  0.4722222222222223   F   F   F
  0.2221436483863680  0.1111859846627737  0.5274249442261766   T   T   T
  0.2221284382656940  0.4443967327667867  0.5274854316934210   T   T   T
  0.2221440043008518  0.7776239332807796  0.5274248501510229   T   T   T
  0.5557066589775232  0.1111858974123064  0.5274248882811715   T   T   T
  0.5565311454396261  0.4464007560065410  0.5281428057643062   T   T   T
  0.5565329948057238  0.7767961185340384  0.5281426859951088   T   T   T
  0.8889334881995815  0.1112014284441279  0.5274854168055891   T   T   T
  0.8889328196051728  0.4443977525946570  0.5274853289599601   T   T   T
  0.8869290944933891  0.7767984490111998  0.5281429263371887   T   T   T
  0.0022263722112360  0.0019033824925765  0.5836409419024452   T   T   T
  0.0000015990948059  0.3333336394574652  0.5836544240041229   T   T   T
  0.0022271556064898  0.6669899544117295  0.5836398394977955   T   T   T
  0.3333334084584904  0.0000016360667335  0.5837604726014927   T   T   T
  0.3314302378590273  0.3311072539877634  0.5836408483920370   T   T   T
  0.3314300542917253  0.6669912037023150  0.5836395295309225   T   T   T
  0.6663434234680027  0.0019040522272373  0.5836397817813295   T   T   T
  0.6663456509191937  0.3311071550424373  0.5836396547949076   T   T   T
  0.6666648677474273  0.6666647842357823  0.5866695970196016   T   T   T
  0.6666695921412172  0.6666695897231512  0.6326467423639142   T   T   T
  0.6666650685074844  0.6666650095124150  0.6612012687220629   T   T   T
