Ag 
 1.0000000000000000
     8.5983832630900725    0.0000000000000000    0.3096632092506426
     4.2936155075093092    7.4496349315025547    0.3096632092506426
     0.0000000000000000    0.0000000000000000   39.8433329235828140
 Ag 
  36
Selective dynamics
Direct
  0.1568165624933104  0.1568166300719647  0.5886553706655019   T   T   T
  0.1568203425001328  0.4901492394465454  0.5886559431547529   T   T   T
  0.1568156943875811  0.8234850176307763  0.5886558468619200   T   T   T
  0.4901492160770701  0.1568203930715584  0.5886559296364977   T   T   T
  0.4901486548661565  0.4901486019274414  0.5886563148769852   T   T   T
  0.4901468608479877  0.8234856011676608  0.5886560017733377   T   T   T
  0.8234850464749714  0.1568157479858291  0.5886558088480756   T   T   T
  0.8234856600182964  0.4901468133442444  0.5886559693463674   T   T   T
  0.8234857827808119  0.8234857536429651  0.5886560758773249   T   T   T
  0.2745411809813085  0.2745411825671045  0.5291444207148489   T   T   T
  0.2745404641869690  0.6078747581310917  0.5291442638453704   T   T   T
  0.2745400384529825  0.9412010729951970  0.5291440738815940   T   T   T
  0.6078747300636270  0.2745404744577632  0.5291442581217752   T   T   T
  0.6078717241900979  0.6078717952123406  0.5291442718218280   T   T   T
  0.6078768413525275  0.9412033814808770  0.5291443374940614   T   T   T
  0.9412011495503824  0.2745400062462727  0.5291440682390076   T   T   T
  0.9412034075584013  0.6078768654672193  0.5291443343653616   T   T   T
  0.9412056480194890  0.9412055548491119  0.5291442453332410   T   T   T
  0.0588233949072055  0.0588233949072054  0.4705882352941176   F   F   F
  0.0588233949072055  0.3921567282405387  0.4705882352941173   F   F   F
  0.0588233949072055  0.7254900615738720  0.4705882352941176   F   F   F
  0.3921567282405388  0.0588233949072054  0.4705882352941176   F   F   F
  0.3921567282405387  0.3921567282405387  0.4705882352941176   F   F   F
  0.3921567282405388  0.7254900615738720  0.4705882352941173   F   F   F
  0.7254900615738720  0.0588233949072054  0.4705882352941176   F   F   F
  0.7254900615738721  0.3921567282405387  0.4705882352941173   F   F   F
  0.7254900615738720  0.7254900615738720  0.4705882352941176   F   F   F
  0.1764704537307346  0.1764704537307344  0.4117647058823530   F   F   F
  0.1764704537307346  0.5098037870640678  0.4117647058823530   F   F   F
  0.1764704537307346  0.8431371203974013  0.4117647058823529   F   F   F
  0.5098037870640679  0.1764704537307344  0.4117647058823530   F   F   F
  0.5098037870640678  0.5098037870640678  0.4117647058823530   F   F   F
  0.5098037870640678  0.8431371203974013  0.4117647058823530   F   F   F
  0.8431371203974012  0.1764704537307344  0.4117647058823530   F   F   F
  0.8431371203974014  0.5098037870640678  0.4117647058823530   F   F   F
  0.8431371203974007  0.8431371203974013  0.4117647058823529   F   F   F
