Ag 
 1.0000000000000000
     8.5983832630900725    0.0000000000000000    0.3096632092506426
     4.2936155075093092    7.4496349315025547    0.3096632092506426
     0.0000000000000000    0.0000000000000000   39.8433329235828140
 Ag 
  36
Selective dynamics
Direct
  0.1568236433366414  0.1568231323300301  0.5885965845985534   T   T   T
  0.1568290544565737  0.4901575812976351  0.5885981234527062   T   T   T
  0.1568225847383063  0.8234866161666933  0.5885978224709606   T   T   T
  0.4901573657037175  0.1568289185930644  0.5885981129243389   T   T   T
  0.4901530055870316  0.4901535324602393  0.5885986942499833   T   T   T
  0.4901547017640347  0.8234895201718690  0.5885975521490614   T   T   T
  0.8234868393213038  0.1568222588521996  0.5885977301821573   T   T   T
  0.8234893988978916  0.4901550527776490  0.5885974743939454   T   T   T
  0.8234927415072972  0.8234926889892860  0.5885980942115561   T   T   T
  0.2745410494737659  0.2745410258945982  0.5291438044609519   T   T   T
  0.2745403332784123  0.6078746665337720  0.5291437154212750   T   T   T
  0.2745399212470446  0.9412014364500771  0.5291434590537049   T   T   T
  0.6078746526028361  0.2745403201897358  0.5291437008981404   T   T   T
  0.6078718234473897  0.6078718958063970  0.5291436367718707   T   T   T
  0.6078765767092612  0.9412035215622885  0.5291436497551143   T   T   T
  0.9412015097607148  0.2745398705818123  0.5291434443208525   T   T   T
  0.9412035341069106  0.6078766036935708  0.5291436461222425   T   T   T
  0.9412057539343951  0.9412056952944116  0.5291435856348516   T   T   T
  0.0588233949072055  0.0588233949072054  0.4705882352941176   F   F   F
  0.0588233949072055  0.3921567282405387  0.4705882352941173   F   F   F
  0.0588233949072055  0.7254900615738720  0.4705882352941176   F   F   F
  0.3921567282405388  0.0588233949072054  0.4705882352941176   F   F   F
  0.3921567282405387  0.3921567282405387  0.4705882352941176   F   F   F
  0.3921567282405388  0.7254900615738720  0.4705882352941173   F   F   F
  0.7254900615738720  0.0588233949072054  0.4705882352941176   F   F   F
  0.7254900615738721  0.3921567282405387  0.4705882352941173   F   F   F
  0.7254900615738720  0.7254900615738720  0.4705882352941176   F   F   F
  0.1764704537307346  0.1764704537307344  0.4117647058823530   F   F   F
  0.1764704537307346  0.5098037870640678  0.4117647058823530   F   F   F
  0.1764704537307346  0.8431371203974013  0.4117647058823529   F   F   F
  0.5098037870640679  0.1764704537307344  0.4117647058823530   F   F   F
  0.5098037870640678  0.5098037870640678  0.4117647058823530   F   F   F
  0.5098037870640678  0.8431371203974013  0.4117647058823530   F   F   F
  0.8431371203974012  0.1764704537307344  0.4117647058823530   F   F   F
  0.8431371203974014  0.5098037870640678  0.4117647058823530   F   F   F
  0.8431371203974007  0.8431371203974013  0.4117647058823529   F   F   F
