Ag  H Pd  O 
 1.0000000000000000
     8.4012246744318553    0.0000000000000000    0.0000000000000006
     0.0000000000000016    9.7556249397631500    0.0778334351619916
     0.0000000000000000    0.0000000000000000   41.2743430770740716
 Ag  H   Pd  O  
  24   1  24   1
Selective dynamics
Direct
  0.1660347337005464  0.2518989723761642  0.5854740555579208   T   T   T
  0.1659485031563415  0.7526126834694237  0.5854800601977477   T   T   T
  0.4987685706507790  0.2512892993125261  0.5850176260564706   T   T   T
  0.4981883235940408  0.7535689366116822  0.5849729880041629   T   T   T
  0.8333452545263407  0.2517080374370756  0.5851741068883484   T   T   T
  0.8338708592305081  0.7531089577844996  0.5851066141385595   T   T   T
  0.1660411940221130  0.4170405856837590  0.5279671364277410   T   T   T
  0.1666318549501024  0.9169249732287675  0.5280168332094881   T   T   T
  0.5009082259081662  0.4178590413345815  0.5284212704194114   T   T   T
  0.5003292798941396  0.9170273770339047  0.5279065853347561   T   T   T
  0.8316070450610068  0.4179365413165363  0.5284903119182026   T   T   T
  0.8330529485068559  0.9167658266558645  0.5279389681326777   T   T   T
  0.1666664815226225  0.0833334535709418  0.4722222217898217   F   F   F
  0.1666664815226226  0.5833334535709418  0.4722222217898217   F   F   F
  0.4999998148559556  0.0833334535709418  0.4722222217898217   F   F   F
  0.4999998148559556  0.5833334535709418  0.4722222217898217   F   F   F
  0.8333331481892892  0.0833334535709418  0.4722222217898217   F   F   F
  0.8333331481892892  0.5833334535709418  0.4722222217898217   F   F   F
  0.1666664815226225  0.2500001202376085  0.4166666662342661   F   F   F
  0.1666664815226226  0.7500001202376085  0.4166666662342661   F   F   F
  0.4999998148559556  0.2500001202376085  0.4166666662342661   F   F   F
  0.4999998148559556  0.7500001202376085  0.4166666662342661   F   F   F
  0.8333331481892892  0.2500001202376085  0.4166666662342661   F   F   F
  0.8333331481892892  0.7500001202376085  0.4166666662342661   F   F   F
  0.7694554002430869  0.4968826891419894  0.6446831929591776   T   T   T
  0.3328377769317439  0.0037253668012488  0.5832363407251128   T   T   T
  0.3298929130501998  0.5038892032489432  0.5830851763271075   T   T   T
  0.6666052420027846  0.0034115377408554  0.5832435065400358   T   T   T
  0.6650347601798826  0.5050918476394937  0.5861481338826960   T   T   T
  0.9998596417851698  0.0037259192705965  0.5832706651572005   T   T   T
  1.0004462937546144  0.5037180172770462  0.5834488818497551   T   T   T
  0.3330941867152180  0.1689273764639560  0.5279461412044857   T   T   T
  0.3333099984335862  0.6684152852085024  0.5279590143420198   T   T   T
  0.6666429652170393  0.1687644108569528  0.5279556843087531   T   T   T
  0.6664392158165727  0.6658461400788263  0.5285947146966704   T   T   T
  0.9997913518575162  0.1688612206463299  0.5279823287729232   T   T   T
  0.9996939228731633  0.6682974110824111  0.5280362836275122   T   T   T
  0.3333331481892897  0.3333334587597487  0.4722222226546229   F   F   F
  0.3333331481892897  0.8333334587597487  0.4722222226546229   F   F   F
  0.6666664815226231  0.3333334587597487  0.4722222226546229   F   F   F
  0.6666664815226231  0.8333334587597487  0.4722222226546229   F   F   F
  0.9999998148559561  0.3333334587597487  0.4722222226546229   F   F   F
  0.9999998148559563  0.8333334587597487  0.4722222226546229   F   F   F
  0.3333331481892892  0.0000001254264155  0.4166666670990671   F   F   F
  0.3333331481892892  0.5000001254264155  0.4166666670990673   F   F   F
  0.6666664815226225  0.0000001254264155  0.4166666670990671   F   F   F
  0.6666664815226224  0.5000001254264155  0.4166666670990673   F   F   F
  0.9999998148559557  0.0000001254264155  0.4166666670990671   F   F   F
  0.9999998148559557  0.5000001254264155  0.4166666670990673   F   F   F
  0.6582785989725742  0.4869791021354918  0.6376864854101912   T   T   T
