Ag  H Pd  O 
 1.0000000000000000
     8.4012246744318553    0.0000000000000000    0.0000000000000006
     0.0000000000000016    9.7556249397631500    0.0778334351619916
     0.0000000000000000    0.0000000000000000   41.2743430770740716
 Ag  H   Pd  O  
  24   1  24   1
Selective dynamics
Direct
  0.1670127864248823  0.2502322748341362  0.5854262027153079   T   T   T
  0.1670682475625557  0.7512272485459484  0.5853836184786966   T   T   T
  0.5000672030387548  0.2502210295503540  0.5853952874932132   T   T   T
  0.4996015345116632  0.7517324862797270  0.5851507428676297   T   T   T
  0.8340555722334935  0.2505876822595305  0.5854920722573294   T   T   T
  0.8346215598917034  0.7513608302141459  0.5852578697099370   T   T   T
  0.1668318256302599  0.4159787677682107  0.5279846411865000   T   T   T
  0.1667550986520839  0.9160116790518728  0.5280225679607411   T   T   T
  0.5013069929035305  0.4164461194175280  0.5283380967151734   T   T   T
  0.5002667078674222  0.9157607664129525  0.5279569730901340   T   T   T
  0.8324160016771616  0.4165840163309422  0.5284382376671367   T   T   T
  0.8332339488875335  0.9156739635814453  0.5279942264849040   T   T   T
  0.1666664815226225  0.0833334535709418  0.4722222217898217   F   F   F
  0.1666664815226226  0.5833334535709418  0.4722222217898217   F   F   F
  0.4999998148559556  0.0833334535709418  0.4722222217898217   F   F   F
  0.4999998148559556  0.5833334535709418  0.4722222217898217   F   F   F
  0.8333331481892892  0.0833334535709418  0.4722222217898217   F   F   F
  0.8333331481892892  0.5833334535709418  0.4722222217898217   F   F   F
  0.1666664815226225  0.2500001202376085  0.4166666662342661   F   F   F
  0.1666664815226226  0.7500001202376085  0.4166666662342661   F   F   F
  0.4999998148559556  0.2500001202376085  0.4166666662342661   F   F   F
  0.4999998148559556  0.7500001202376085  0.4166666662342661   F   F   F
  0.8333331481892892  0.2500001202376085  0.4166666662342661   F   F   F
  0.8333331481892892  0.7500001202376085  0.4166666662342661   F   F   F
  0.7605411707646288  0.4982868848164948  0.6427861591649536   T   T   T
  0.3335801951832430  0.0025128706657239  0.5830904431709659   T   T   T
  0.3315420587728631  0.5022649035242549  0.5830381877683066   T   T   T
  0.6670857942148447  0.0024320119071310  0.5829657382401823   T   T   T
  0.6667902870262434  0.5032831471107502  0.5855003295897059   T   T   T
  1.0001440629841023  0.0025377801170272  0.5830986021022437   T   T   T
  1.0020729138438293  0.5022134836988753  0.5832435319071526   T   T   T
  0.3336899617143461  0.1677103005330121  0.5280486319962419   T   T   T
  0.3337471651484716  0.6670708634973939  0.5280540718590228   T   T   T
  0.6668730901148227  0.1675660706357635  0.5280625640096914   T   T   T
  0.6668315796199336  0.6651957373951931  0.5284306292954961   T   T   T
  0.9999052101428698  0.1677385714852863  0.5280564724239619   T   T   T
  0.9999842545676433  0.6670982666907944  0.5280888090992811   T   T   T
  0.3333331481892897  0.3333334587597487  0.4722222226546229   F   F   F
  0.3333331481892897  0.8333334587597487  0.4722222226546229   F   F   F
  0.6666664815226231  0.3333334587597487  0.4722222226546229   F   F   F
  0.6666664815226231  0.8333334587597487  0.4722222226546229   F   F   F
  0.9999998148559561  0.3333334587597487  0.4722222226546229   F   F   F
  0.9999998148559563  0.8333334587597487  0.4722222226546229   F   F   F
  0.3333331481892892  0.0000001254264155  0.4166666670990671   F   F   F
  0.3333331481892892  0.5000001254264155  0.4166666670990673   F   F   F
  0.6666664815226225  0.0000001254264155  0.4166666670990671   F   F   F
  0.6666664815226224  0.5000001254264155  0.4166666670990673   F   F   F
  0.9999998148559557  0.0000001254264155  0.4166666670990671   F   F   F
  0.9999998148559557  0.5000001254264155  0.4166666670990673   F   F   F
  0.6504575634341645  0.4970327097320387  0.6346009156933198   T   T   T
