Ag Pd  C  O 
 1.0000000000000000
     8.4012246744318553    0.0000000000000000    0.0000000000000006
     0.0000000000000016    9.7556249397631500    0.0778334351619916
     0.0000000000000000    0.0000000000000000   41.2743430770740716
 Ag  Pd  C   O  
  24  24   1   1
Selective dynamics
Direct
  0.1649044269399866  0.2506368723603860  0.5849839655277163   T   T   T
  0.1662458052902450  0.7507442493304513  0.5856509415000453   T   T   T
  0.4999800990131013  0.2484455355543277  0.5853069179494935   T   T   T
  0.4999950754816728  0.7505777166432016  0.5857133554229870   T   T   T
  0.8350535872117891  0.2506358299138471  0.5849873965496569   T   T   T
  0.8337417104848164  0.7507440779606627  0.5856519995255551   T   T   T
  0.1666494050818887  0.4164254098829214  0.5279855451742924   T   T   T
  0.1667278147790057  0.9162529877752366  0.5280214097303573   T   T   T
  0.4999990273321702  0.4163520885823464  0.5280715973272055   T   T   T
  0.5000021460933229  0.9162382395584033  0.5280472926433053   T   T   T
  0.8333477117654692  0.4164234485686569  0.5279861543517888   T   T   T
  0.8332746424463326  0.9162521788370497  0.5280216391176231   T   T   T
  0.1666664815226225  0.0833334535709418  0.4722222217898217   F   F   F
  0.1666664815226226  0.5833334535709418  0.4722222217898217   F   F   F
  0.4999998148559556  0.0833334535709418  0.4722222217898217   F   F   F
  0.4999998148559556  0.5833334535709418  0.4722222217898217   F   F   F
  0.8333331481892892  0.0833334535709418  0.4722222217898217   F   F   F
  0.8333331481892892  0.5833334535709418  0.4722222217898217   F   F   F
  0.1666664815226225  0.2500001202376085  0.4166666662342661   F   F   F
  0.1666664815226226  0.7500001202376085  0.4166666662342661   F   F   F
  0.4999998148559556  0.2500001202376085  0.4166666662342661   F   F   F
  0.4999998148559556  0.7500001202376085  0.4166666662342661   F   F   F
  0.8333331481892892  0.2500001202376085  0.4166666662342661   F   F   F
  0.8333331481892892  0.7500001202376085  0.4166666662342661   F   F   F
  0.3324079769865769  0.0000779730661637  0.5831114465139940   T   T   T
  0.3323783766344136  0.5037990553363888  0.5831157902083483   T   T   T
  0.6675850919417877  0.0000789061303792  0.5831117859217892   T   T   T
  0.6676122806854748  0.5037981299973427  0.5831160102964419   T   T   T
  0.9999948916780368  0.0021731466672701  0.5831897294890244   T   T   T
  0.9999943150137649  0.5028450713801647  0.5831794021876159   T   T   T
  0.3339157574750542  0.1680799323871591  0.5282490950884943   T   T   T
  0.3335081253201010  0.6675599590222289  0.5281770720862791   T   T   T
  0.6660714511256681  0.1680800289546399  0.5282495175790709   T   T   T
  0.6664829435308230  0.6675593248172732  0.5281771624475375   T   T   T
  0.9999917428668961  0.1670994172227117  0.5279235088129678   T   T   T
  0.9999943320342471  0.6675183940378722  0.5281567545871884   T   T   T
  0.3333331481892897  0.3333334587597487  0.4722222226546229   F   F   F
  0.3333331481892897  0.8333334587597487  0.4722222226546229   F   F   F
  0.6666664815226231  0.3333334587597487  0.4722222226546229   F   F   F
  0.6666664815226231  0.8333334587597487  0.4722222226546229   F   F   F
  0.9999998148559561  0.3333334587597487  0.4722222226546229   F   F   F
  0.9999998148559563  0.8333334587597487  0.4722222226546229   F   F   F
  0.3333331481892892  0.0000001254264155  0.4166666670990671   F   F   F
  0.3333331481892892  0.5000001254264155  0.4166666670990673   F   F   F
  0.6666664815226225  0.0000001254264155  0.4166666670990671   F   F   F
  0.6666664815226224  0.5000001254264155  0.4166666670990673   F   F   F
  0.9999998148559557  0.0000001254264155  0.4166666670990671   F   F   F
  0.9999998148559557  0.5000001254264155  0.4166666670990673   F   F   F
  0.4999916733136975  0.2664742826641670  0.6362062968002773   T   T   T
  0.5000311371728965  0.2439657680884063  0.6634390404535547   T   T   T
