Ag  H  O 
 1.0000000000000000
     8.5983832630900725    0.0000000000000000    0.3096632092506426
     4.2936155075093092    7.4496349315025547    0.3096632092506426
     0.0000000000000000    0.0000000000000000   39.8433329235828140
 Ag  H   O  
  36   1   1
Selective dynamics
Direct
  0.1563651169783030  0.1565383218362786  0.5893544811600467   T   T   T
  0.1538497392022597  0.4898374011801173  0.5885185912896146   T   T   T
  0.1543712278984716  0.8255185270402715  0.5885570344496313   T   T   T
  0.4897424448991636  0.1546670593762788  0.5886273336235310   T   T   T
  0.4870309958461471  0.4898264671150090  0.5911544047160551   T   T   T
  0.4900156578713372  0.8240362544096569  0.5887767457363762   T   T   T
  0.8240026800727513  0.1561137891672091  0.5888068201960350   T   T   T
  0.8239144918317047  0.4898136319598015  0.5888064158225473   T   T   T
  0.8230331312822665  0.8232485006056377  0.5892438618504128   T   T   T
  0.2744891419370638  0.2743767620568462  0.5292684109381437   T   T   T
  0.2761085059250966  0.6068440862952637  0.5298268959143255   T   T   T
  0.2745801400718079  0.9411337730141225  0.5293105430138779   T   T   T
  0.6066811450508905  0.2764109244791036  0.5298876515322570   T   T   T
  0.6066355680047709  0.6065849491274552  0.5298957950128940   T   T   T
  0.6083371385417541  0.9407453174508669  0.5291326564097369   T   T   T
  0.9411703560218568  0.2744735026161088  0.5293092175784974   T   T   T
  0.9405668996582222  0.6083490139191606  0.5290942723735904   T   T   T
  0.9406337198836642  0.9411439208806669  0.5291480088489954   T   T   T
  0.0588233949072055  0.0588233949072054  0.4705882352941176   F   F   F
  0.0588233949072055  0.3921567282405387  0.4705882352941173   F   F   F
  0.0588233949072055  0.7254900615738720  0.4705882352941176   F   F   F
  0.3921567282405388  0.0588233949072054  0.4705882352941176   F   F   F
  0.3921567282405387  0.3921567282405387  0.4705882352941176   F   F   F
  0.3921567282405388  0.7254900615738720  0.4705882352941173   F   F   F
  0.7254900615738720  0.0588233949072054  0.4705882352941176   F   F   F
  0.7254900615738721  0.3921567282405387  0.4705882352941173   F   F   F
  0.7254900615738720  0.7254900615738720  0.4705882352941176   F   F   F
  0.1764704537307346  0.1764704537307344  0.4117647058823530   F   F   F
  0.1764704537307346  0.5098037870640678  0.4117647058823530   F   F   F
  0.1764704537307346  0.8431371203974013  0.4117647058823529   F   F   F
  0.5098037870640679  0.1764704537307344  0.4117647058823530   F   F   F
  0.5098037870640678  0.5098037870640678  0.4117647058823530   F   F   F
  0.5098037870640678  0.8431371203974013  0.4117647058823530   F   F   F
  0.8431371203974012  0.1764704537307344  0.4117647058823530   F   F   F
  0.8431371203974014  0.5098037870640678  0.4117647058823530   F   F   F
  0.8431371203974007  0.8431371203974013  0.4117647058823529   F   F   F
  0.5903596108133017  0.4891358731882741  0.6527937305780446   T   T   T
  0.4779468244926161  0.4894557749991120  0.6491872213002098   T   T   T
