Ag  H Pd  O 
 1.0000000000000000
     8.5013114179517117    0.0000000000000000    0.0000000000000005
     4.2506557089758541    7.3623516534288900    0.0000000000000005
     0.0000000000000000    0.0000000000000000   48.5890419431158733
 Ag  H   Pd  O  
  26   1  10   1
Selective dynamics
Direct
  0.6666666666666671  0.6666666666666666  0.4761904911784334   F   F   F
  0.3333332867041333  0.3333332867041335  0.4761904711944905   F   F   F
  0.3333332867041333  0.9999999533708002  0.4761904711944905   F   F   F
  0.9999999533707997  0.3333332867041335  0.4761904711944905   F   F   F
  0.9999999533707999  0.9999999533708002  0.4761904711944905   F   F   F
  0.6666667599250664  0.3333332867041335  0.4761904711944905   F   F   F
  0.6666667599250664  0.9999999533708002  0.4761904711944905   F   F   F
  0.4444444444444445  0.4444444444444445  0.5238095387974809   F   F   F
  0.6621582652501716  0.6704497729204827  0.6215071822074438   T   T   T
  0.2233552442017122  0.2221048050960926  0.5711551815810507   T   T   T
  0.2216676667380582  0.8909820149876647  0.5713826929588871   T   T   T
  0.8873477960622884  0.2224196056770406  0.5710352826151484   T   T   T
  0.8851395182664018  0.8919887105512597  0.5713643485458075   T   T   T
  0.5568321582712636  0.5566250739498555  0.5717777591851867   T   T   T
  0.1111110644819112  0.7777777311485777  0.5238095188135381   F   F   F
  0.7777777311485781  0.7777777311485777  0.5238095188135381   F   F   F
  0.3309103776839395  0.3375885327851200  0.6201186423998952   T   T   T
  0.3298661624437349  1.0015693593458452  0.6197073626323929   T   T   T
  0.9987515541667398  0.3362301877990536  0.6203152504664643   T   T   T
  1.0001851754590840  0.9982237413906515  0.6209644319641360   T   T   T
  0.2221506231050464  0.5536785033087370  0.5712056122432673   T   T   T
  0.8855707648705282  0.5570079607788433  0.5715961047549651   T   T   T
  0.4444445377028442  0.1111110644819113  0.5238095188135381   F   F   F
  0.4444445377028442  0.7777777311485780  0.5238095188135381   F   F   F
  0.6640002613152826  0.3336110876093105  0.6195015504349091   T   T   T
  0.6663527121625030  1.0004623839818805  0.6193487037687903   T   T   T
  0.7709216944652982  0.6622218879971299  0.6725614876341569   T   T   T
  0.3333332867041338  0.6666667599250664  0.4761904711944905   F   F   F
  0.9999999533708005  0.6666667599250664  0.4761904711944905   F   F   F
  0.5556747081849295  0.2215044024957429  0.5714672674897154   T   T   T
  0.5554497653008611  0.8878325545600900  0.5720292445554661   T   T   T
  0.1111110644819112  0.4444445377028443  0.5238095188135381   F   F   F
  0.1111110644819112  1.1111112043695111  0.5238095188135381   F   F   F
  0.7777777311485784  0.4444445377028443  0.5238095188135381   F   F   F
  0.7777777311485777  1.1111112043695111  0.5238095188135381   F   F   F
  0.3269318926403254  0.6686639409797005  0.6177661941600504   T   T   T
  1.0006665751743553  0.6678271702267108  0.6179946097796860   T   T   T
  0.6578538397371700  0.6622723490433404  0.6683598468898289   T   T   T
