Pd 
 1.0000000000000000
     8.2582115393440390    0.0000000000000000    0.0000000000000006
    -4.1291057696720213    7.1518209828977302    0.0000000000000006
     0.0000000000000000    0.0000000000000000   40.4568089187138042
 Pd 
  36
Selective dynamics
Direct
  0.0000003242213467  0.0000001621106736  0.4166666666666669   F   F   F
  0.0000003242213467  0.3333334954440070  0.4166666666666669   F   F   F
  0.0000003242213466  0.6666668287773403  0.4166666666666669   F   F   F
  0.3333336575546800  0.0000001621106736  0.4166666666666669   F   F   F
  0.3333336575546800  0.3333334954440070  0.4166666666666669   F   F   F
  0.3333336575546799  0.6666668287773403  0.4166666666666669   F   F   F
  0.6666669908880133  0.0000001621106736  0.4166666666666669   F   F   F
  0.6666669908880132  0.3333334954440070  0.4166666666666669   F   F   F
  0.6666669908880132  0.6666668287773403  0.4166666666666669   F   F   F
  0.1111114353324573  0.2222223843328956  0.4722222222222223   F   F   F
  0.1111114353324573  0.5555557176662289  0.4722222222222223   F   F   F
  0.1111114353324574  0.8888890509995623  0.4722222222222223   F   F   F
  0.4444447686657906  0.2222223843328956  0.4722222222222223   F   F   F
  0.4444447686657906  0.5555557176662289  0.4722222222222223   F   F   F
  0.4444447686657906  0.8888890509995623  0.4722222222222223   F   F   F
  0.7777781019991239  0.2222223843328956  0.4722222222222223   F   F   F
  0.7777781019991239  0.5555557176662289  0.4722222222222223   F   F   F
  0.7777781019991239  0.8888890509995623  0.4722222222222223   F   F   F
  0.2222212474608831  0.1111103383186759  0.5274782104000726   T   T   T
  0.2222212056391809  0.4444439059470952  0.5274782358603597   T   T   T
  0.2222210665900736  0.7777768464663571  0.5274781734244206   T   T   T
  0.5555546557613272  0.1111104751451871  0.5274782049181974   T   T   T
  0.5555547784558144  0.4444438853797889  0.5274782317124475   T   T   T
  0.5555544929613121  0.7777769500977082  0.5274781970574439   T   T   T
  0.8888881784419036  0.1111106361682834  0.5274782084040460   T   T   T
  0.8888883017189627  0.4444440476403261  0.5274782216624699   T   T   T
  0.8888881749813149  0.7777769949829558  0.5274781982244285   T   T   T
  0.0000011910106702  0.0000014349937695  0.5836927890755165   T   T   T
  0.0000001315985238  0.3333341573022446  0.5836927895216003   T   T   T
  0.0000008364479569  0.6666671479133356  0.5836923430934797   T   T   T
  0.3333346479931074  0.0000013664507323  0.5836928065754869   T   T   T
  0.3333339712701376  0.3333336874647508  0.5836922401472070   T   T   T
  0.3333336488284364  0.6666677373913131  0.5836920827125179   T   T   T
  0.6666681389160156  0.0000023167379665  0.5836929693071715   T   T   T
  0.6666682071878790  0.3333339745909447  0.5836928241604586   T   T   T
  0.6666682160198424  0.6666676502462718  0.5836920503402885   T   T   T
