Ag  H Pd  O 
 1.0000000000000000
     8.5013114179517117    0.0000000000000000    0.0000000000000005
     4.2506557089758541    7.3623516534288900    0.0000000000000005
     0.0000000000000000    0.0000000000000000   48.5890419431158733
 Ag  H   Pd  O  
  26   1  10   1
Selective dynamics
Direct
  0.6666666666666671  0.6666666666666666  0.4761904911784334   F   F   F
  0.3333332867041333  0.3333332867041335  0.4761904711944905   F   F   F
  0.3333332867041333  0.9999999533708002  0.4761904711944905   F   F   F
  0.9999999533707997  0.3333332867041335  0.4761904711944905   F   F   F
  0.9999999533707999  0.9999999533708002  0.4761904711944905   F   F   F
  0.6666667599250664  0.3333332867041335  0.4761904711944905   F   F   F
  0.6666667599250664  0.9999999533708002  0.4761904711944905   F   F   F
  0.4444444444444445  0.4444444444444445  0.5238095387974809   F   F   F
  0.6612465740052449  0.6713269669779703  0.6216578281997795   T   T   T
  0.2231076327309477  0.2220306029805471  0.5712129722014202   T   T   T
  0.2216367119215721  0.8909564175400893  0.5713201229671757   T   T   T
  0.8870951628987777  0.2227286548298422  0.5710556235607392   T   T   T
  0.8849832831331936  0.8920804271839629  0.5712816460286541   T   T   T
  0.5566858941893215  0.5565944972954695  0.5717968833498258   T   T   T
  0.1111110644819112  0.7777777311485777  0.5238095188135381   F   F   F
  0.7777777311485781  0.7777777311485777  0.5238095188135381   F   F   F
  0.3309445269434420  0.3374434142375258  0.6200022040187251   T   T   T
  0.3295810253207803  1.0016947614504759  0.6197760067391436   T   T   T
  0.9979642153563855  0.3367451317921733  0.6203693605555229   T   T   T
  0.9999618416908538  0.9986368008531457  0.6207607270656976   T   T   T
  0.2220673755641258  0.5537027846951997  0.5711193678894093   T   T   T
  0.8854241710074560  0.5570416813385356  0.5715849131767021   T   T   T
  0.4444445377028442  0.1111110644819113  0.5238095188135381   F   F   F
  0.4444445377028442  0.7777777311485780  0.5238095188135381   F   F   F
  0.6638660942940815  0.3342481471580095  0.6196435800763407   T   T   T
  0.6663906025953317  1.0005355455855440  0.6194386929456500   T   T   T
  0.7704327393262231  0.6623294310440587  0.6713374653245597   T   T   T
  0.3333332867041338  0.6666667599250664  0.4761904711944905   F   F   F
  0.9999999533708005  0.6666667599250664  0.4761904711944905   F   F   F
  0.5556233251710152  0.2216048882112306  0.5715686566777595   T   T   T
  0.5553272244116858  0.8878165853104348  0.5720768442389225   T   T   T
  0.1111110644819112  0.4444445377028443  0.5238095188135381   F   F   F
  0.1111110644819112  1.1111112043695111  0.5238095188135381   F   F   F
  0.7777777311485784  0.4444445377028443  0.5238095188135381   F   F   F
  0.7777777311485777  1.1111112043695111  0.5238095188135381   F   F   F
  0.3264084967728656  0.6689164492848648  0.6175778742006340   T   T   T
  1.0002478100624586  0.6681583698476597  0.6177287064276783   T   T   T
  0.6585656756234263  0.6604342988097204  0.6670625941480164   T   T   T
