Ag Pd  C  O 
 1.0000000000000000
     8.4012246744318553    0.0000000000000000    0.0000000000000006
     0.0000000000000016    9.7556249397631500    0.0778334351619916
     0.0000000000000000    0.0000000000000000   41.2743430770740716
 Ag  Pd  C   O  
  24  24   1   1
Selective dynamics
Direct
  0.1666715966030978  0.2498171874501122  0.5853778101910664   T   T   T
  0.1666675467649293  0.7510091924642197  0.5852373431783231   T   T   T
  0.4989809465222764  0.2488955067025027  0.5853056630677701   T   T   T
  0.4983630172405306  0.7524638446150314  0.5850388406592177   T   T   T
  0.8343614374468847  0.2488949169728157  0.5853059895853659   T   T   T
  0.8349718324762941  0.7524645434119760  0.5850399469697987   T   T   T
  0.1666618989434715  0.4159493277882000  0.5279865433348576   T   T   T
  0.1666709871497345  0.9157319900921401  0.5278534351183656   T   T   T
  0.5009858430029699  0.4164098152823628  0.5283655782894962   T   T   T
  0.5003376591073940  0.9155631664053656  0.5278330663615423   T   T   T
  0.8323413338468930  0.4164094364889560  0.5283649058153940   T   T   T
  0.8330036210095444  0.9155629814148490  0.5278330920552117   T   T   T
  0.1666664815226225  0.0833334535709418  0.4722222217898217   F   F   F
  0.1666664815226226  0.5833334535709418  0.4722222217898217   F   F   F
  0.4999998148559556  0.0833334535709418  0.4722222217898217   F   F   F
  0.4999998148559556  0.5833334535709418  0.4722222217898217   F   F   F
  0.8333331481892892  0.0833334535709418  0.4722222217898217   F   F   F
  0.8333331481892892  0.5833334535709418  0.4722222217898217   F   F   F
  0.1666664815226225  0.2500001202376085  0.4166666662342661   F   F   F
  0.1666664815226226  0.7500001202376085  0.4166666662342661   F   F   F
  0.4999998148559556  0.2500001202376085  0.4166666662342661   F   F   F
  0.4999998148559556  0.7500001202376085  0.4166666662342661   F   F   F
  0.8333331481892892  0.2500001202376085  0.4166666662342661   F   F   F
  0.8333331481892892  0.7500001202376085  0.4166666662342661   F   F   F
  0.3329597001134162  0.0020425206758632  0.5829627390216240   T   T   T
  0.3307935107268428  0.5020066177605463  0.5832130722361112   T   T   T
  0.6666731712522486  0.0016252132485554  0.5829847820759957   T   T   T
  0.6666638192598527  0.5035895867873282  0.5861453467303570   T   T   T
  1.0003875031502232  0.0020419599136176  0.5829628964867603   T   T   T
  1.0025347818421892  0.5020053410186890  0.5832122629065750   T   T   T
  0.3334373838592057  0.1678185155255598  0.5279483560768059   T   T   T
  0.3335640416977816  0.6670218303969911  0.5279708881564521   T   T   T
  0.6666662930008485  0.1679481378904937  0.5280123419224875   T   T   T
  0.6666659502299934  0.6645095446476132  0.5285968706783341   T   T   T
  0.9998946915568875  0.1678178725397055  0.5279484598974458   T   T   T
  0.9997650194684332  0.6670229091416998  0.5279710114091578   T   T   T
  0.3333331481892897  0.3333334587597487  0.4722222226546229   F   F   F
  0.3333331481892897  0.8333334587597487  0.4722222226546229   F   F   F
  0.6666664815226231  0.3333334587597487  0.4722222226546229   F   F   F
  0.6666664815226231  0.8333334587597487  0.4722222226546229   F   F   F
  0.9999998148559561  0.3333334587597487  0.4722222226546229   F   F   F
  0.9999998148559563  0.8333334587597487  0.4722222226546229   F   F   F
  0.3333331481892892  0.0000001254264155  0.4166666670990671   F   F   F
  0.3333331481892892  0.5000001254264155  0.4166666670990673   F   F   F
  0.6666664815226225  0.0000001254264155  0.4166666670990671   F   F   F
  0.6666664815226224  0.5000001254264155  0.4166666670990673   F   F   F
  0.9999998148559557  0.0000001254264155  0.4166666670990671   F   F   F
  0.9999998148559557  0.5000001254264155  0.4166666670990673   F   F   F
  0.6666664753953400  0.4926849166573165  0.6314545935553639   T   T   T
  0.6666766793693004  0.4996816840532551  0.6595653697246521   T   T   T
