Ag  H Pd  O 
 1.0000000000000000
     8.4012246744318553    0.0000000000000000    0.0000000000000006
     0.0000000000000016    9.7556249397631500    0.0778334351619916
     0.0000000000000000    0.0000000000000000   41.2743430770740716
 Ag  H   Pd  O  
  24   1  24   1
Selective dynamics
Direct
  0.1684864766812364  0.2538849094460313  0.5842449604484767   T   T   T
  0.1685000829974894  0.7542131683376934  0.5857455174429524   T   T   T
  0.5025912109792180  0.2545779693140711  0.5922051620667027   T   T   T
  0.5019969987727551  0.7538051494655251  0.5857192513501981   T   T   T
  0.8361275846058309  0.2538788761110012  0.5841169313924326   T   T   T
  0.8356309366365059  0.7542343817233709  0.5857428351963481   T   T   T
  0.1679722396291713  0.4186850107639724  0.5277836160481090   T   T   T
  0.1680724184703051  0.9183632459601292  0.5280314967679727   T   T   T
  0.5012244754156735  0.4163548940764332  0.5289585008455980   T   T   T
  0.5011835490363482  0.9181689584740536  0.5280254682274683   T   T   T
  0.8343958661041871  0.4187336101745979  0.5277564461468964   T   T   T
  0.8343597023405370  0.9183893221146217  0.5280217598150447   T   T   T
  0.1666664815226225  0.0833334535709418  0.4722222217898217   F   F   F
  0.1666664815226226  0.5833334535709418  0.4722222217898217   F   F   F
  0.4999998148559556  0.0833334535709418  0.4722222217898217   F   F   F
  0.4999998148559556  0.5833334535709418  0.4722222217898217   F   F   F
  0.8333331481892892  0.0833334535709418  0.4722222217898217   F   F   F
  0.8333331481892892  0.5833334535709418  0.4722222217898217   F   F   F
  0.1666664815226225  0.2500001202376085  0.4166666662342661   F   F   F
  0.1666664815226226  0.7500001202376085  0.4166666662342661   F   F   F
  0.4999998148559556  0.2500001202376085  0.4166666662342661   F   F   F
  0.4999998148559556  0.7500001202376085  0.4166666662342661   F   F   F
  0.8333331481892892  0.2500001202376085  0.4166666662342661   F   F   F
  0.8333331481892892  0.7500001202376085  0.4166666662342661   F   F   F
  0.5087517316813460  0.2677682331997319  0.6682797503781812   T   T   T
  0.3358040420806632  0.0043829293912175  0.5833027841834953   T   T   T
  0.3344016864606126  0.5064764114781353  0.5831860853573513   T   T   T
  0.6685751862537557  0.0042274983432519  0.5832736207135389   T   T   T
  0.6699478110170703  0.5066367211088892  0.5831461540789412   T   T   T
  1.0021831197436193  0.0053606642191073  0.5833277092810596   T   T   T
  1.0021572276415998  0.5052136704004474  0.5833032530877940   T   T   T
  0.3366724670074597  0.1704545037660001  0.5286765527860249   T   T   T
  0.3347194665018859  0.6698312640718267  0.5280182479503028   T   T   T
  0.6657234460430737  0.1704740351313835  0.5286762338215237   T   T   T
  0.6675255480785472  0.6698851382979224  0.5280060361630080   T   T   T
  1.0012626808615874  0.1692473642034413  0.5275715096269855   T   T   T
  1.0011379697426037  0.6702618157369352  0.5281021268284533   T   T   T
  0.3333331481892897  0.3333334587597487  0.4722222226546229   F   F   F
  0.3333331481892897  0.8333334587597487  0.4722222226546229   F   F   F
  0.6666664815226231  0.3333334587597487  0.4722222226546229   F   F   F
  0.6666664815226231  0.8333334587597487  0.4722222226546229   F   F   F
  0.9999998148559561  0.3333334587597487  0.4722222226546229   F   F   F
  0.9999998148559563  0.8333334587597487  0.4722222226546229   F   F   F
  0.3333331481892892  0.0000001254264155  0.4166666670990671   F   F   F
  0.3333331481892892  0.5000001254264155  0.4166666670990673   F   F   F
  0.6666664815226225  0.0000001254264155  0.4166666670990671   F   F   F
  0.6666664815226224  0.5000001254264155  0.4166666670990673   F   F   F
  0.9999998148559557  0.0000001254264155  0.4166666670990671   F   F   F
  0.9999998148559557  0.5000001254264155  0.4166666670990673   F   F   F
  0.5084873978637907  0.2690025567437504  0.6446972845293194   T   T   T
