Ag  H Pd  O 
 1.0000000000000000
     8.4012246744318553    0.0000000000000000    0.0000000000000006
     0.0000000000000016    9.7556249397631500    0.0778334351619916
     0.0000000000000000    0.0000000000000000   41.2743430770740716
 Ag  H   Pd  O  
  24   1  24   1
Selective dynamics
Direct
  0.1645229057079380  0.2518235271696577  0.5848410563401586   T   T   T
  0.1662509388084914  0.7519947615959274  0.5855097845658205   T   T   T
  0.4986408236998534  0.2508962666237560  0.5868435524021729   T   T   T
  0.4999371685994567  0.7518703888218231  0.5855632107368958   T   T   T
  0.8333502799716097  0.2518283272496207  0.5849898441456405   T   T   T
  0.8332419955252455  0.7519286612143128  0.5855155912245762   T   T   T
  0.1665939485485698  0.4165826171126452  0.5279561806326442   T   T   T
  0.1667239818262448  0.9165968751500666  0.5280331579559078   T   T   T
  0.4999498212301242  0.4157475708294325  0.5283939001151103   T   T   T
  0.4999526777992099  0.9161812186265499  0.5279977874225391   T   T   T
  0.8330938668232301  0.4165271765968013  0.5280083276477067   T   T   T
  0.8328833029036941  0.9165742703858262  0.5280682296805076   T   T   T
  0.1666664815226225  0.0833334535709418  0.4722222217898217   F   F   F
  0.1666664815226226  0.5833334535709418  0.4722222217898217   F   F   F
  0.4999998148559556  0.0833334535709418  0.4722222217898217   F   F   F
  0.4999998148559556  0.5833334535709418  0.4722222217898217   F   F   F
  0.8333331481892892  0.0833334535709418  0.4722222217898217   F   F   F
  0.8333331481892892  0.5833334535709418  0.4722222217898217   F   F   F
  0.1666664815226225  0.2500001202376085  0.4166666662342661   F   F   F
  0.1666664815226226  0.7500001202376085  0.4166666662342661   F   F   F
  0.4999998148559556  0.2500001202376085  0.4166666662342661   F   F   F
  0.4999998148559556  0.7500001202376085  0.4166666662342661   F   F   F
  0.8333331481892892  0.2500001202376085  0.4166666662342661   F   F   F
  0.8333331481892892  0.7500001202376085  0.4166666662342661   F   F   F
  0.6021349902362968  0.2521957752330412  0.6459334058597350   T   T   T
  0.3324245455408760  0.0017237642523513  0.5829805721392789   T   T   T
  0.3326793431098925  0.5048561476844702  0.5829740881921498   T   T   T
  0.6665998067180607  0.0020377819424431  0.5831168484109761   T   T   T
  0.6664210716374567  0.5043493448419879  0.5831698417706583   T   T   T
  0.9994769709204956  0.0032769609638193  0.5831067683019383   T   T   T
  0.9996079254782697  0.5041711284046820  0.5830393314935867   T   T   T
  0.3341626279047819  0.1681042025684746  0.5283305183406272   T   T   T
  0.3334205784573175  0.6675276347858060  0.5281007624495662   T   T   T
  0.6653105618670935  0.1680430286401519  0.5283731829423175   T   T   T
  0.6666680441093402  0.6673573913673048  0.5281580435222869   T   T   T
  0.9996216956178063  0.1672084966361976  0.5279065050612056   T   T   T
  0.9999655244986515  0.6676727667548371  0.5280682452935893   T   T   T
  0.3333331481892897  0.3333334587597487  0.4722222226546229   F   F   F
  0.3333331481892897  0.8333334587597487  0.4722222226546229   F   F   F
  0.6666664815226231  0.3333334587597487  0.4722222226546229   F   F   F
  0.6666664815226231  0.8333334587597487  0.4722222226546229   F   F   F
  0.9999998148559561  0.3333334587597487  0.4722222226546229   F   F   F
  0.9999998148559563  0.8333334587597487  0.4722222226546229   F   F   F
  0.3333331481892892  0.0000001254264155  0.4166666670990671   F   F   F
  0.3333331481892892  0.5000001254264155  0.4166666670990673   F   F   F
  0.6666664815226225  0.0000001254264155  0.4166666670990671   F   F   F
  0.6666664815226224  0.5000001254264155  0.4166666670990673   F   F   F
  0.9999998148559557  0.0000001254264155  0.4166666670990671   F   F   F
  0.9999998148559557  0.5000001254264155  0.4166666670990673   F   F   F
  0.4902072790318031  0.2614581419474524  0.6393799375997132   T   T   T
