Ag  H Pd  O 
 1.0000000000000000
     8.5013114179517117    0.0000000000000000    0.0000000000000005
     4.2506557089758541    7.3623516534288900    0.0000000000000005
     0.0000000000000000    0.0000000000000000   48.5890419431158733
 Ag  H   Pd  O  
  26   1  10   1
Selective dynamics
Direct
  0.6666666666666671  0.6666666666666666  0.4761904911784334   F   F   F
  0.3333332867041333  0.3333332867041335  0.4761904711944905   F   F   F
  0.3333332867041333  0.9999999533708002  0.4761904711944905   F   F   F
  0.9999999533707997  0.3333332867041335  0.4761904711944905   F   F   F
  0.9999999533707999  0.9999999533708002  0.4761904711944905   F   F   F
  0.6666667599250664  0.3333332867041335  0.4761904711944905   F   F   F
  0.6666667599250664  0.9999999533708002  0.4761904711944905   F   F   F
  0.4444444444444445  0.4444444444444445  0.5238095387974809   F   F   F
  0.6659902433662546  0.6680908046146294  0.6202106727851685   T   T   T
  0.2230689840451340  0.2216976961291880  0.5712380509746560   T   T   T
  0.2229175585487498  0.8878462525442227  0.5720192748448776   T   T   T
  0.8871833261057449  0.2224820218953758  0.5710190720753383   T   T   T
  0.8849158524279849  0.8919985936893818  0.5714128270512465   T   T   T
  0.5533192295493414  0.5570927372937613  0.5720215431034678   T   T   T
  0.1111110644819112  0.7777777311485777  0.5238095188135381   F   F   F
  0.7777777311485781  0.7777777311485777  0.5238095188135381   F   F   F
  0.3306841586651113  0.3353178705805175  0.6199182487376429   T   T   T
  0.3322860696605873  0.9994977260132725  0.6201804739527942   T   T   T
  0.9981439042443561  0.3353239290249603  0.6208245621901436   T   T   T
  0.9979467017716968  0.9990098131398041  0.6205849666992030   T   T   T
  0.2237501401280760  0.5553566927065477  0.5718233674559214   T   T   T
  0.8874478337940472  0.5556699251015932  0.5712045033770858   T   T   T
  0.4444445377028442  0.1111110644819113  0.5238095188135381   F   F   F
  0.4444445377028442  0.7777777311485780  0.5238095188135381   F   F   F
  0.6645888494735610  0.3338071749415029  0.6200520588203029   T   T   T
  0.6654964603582839  0.9996233250164014  0.6198501433013672   T   T   T
  0.4361647183627798  0.6657945321595997  0.6707642211599589   T   T   T
  0.3333332867041338  0.6666667599250664  0.4761904711944905   F   F   F
  0.9999999533708005  0.6666667599250664  0.4761904711944905   F   F   F
  0.5559459726236247  0.2217950137169284  0.5716200125995605   T   T   T
  0.5542041791165520  0.8897823035982971  0.5717979244905790   T   T   T
  0.1111110644819112  0.4444445377028443  0.5238095188135381   F   F   F
  0.1111110644819112  1.1111112043695111  0.5238095188135381   F   F   F
  0.7777777311485784  0.4444445377028443  0.5238095188135381   F   F   F
  0.7777777311485777  1.1111112043695111  0.5238095188135381   F   F   F
  0.3294003489813087  0.6676949804041128  0.6209694831823290   T   T   T
  0.9971901785932433  0.6669259919433247  0.6180060570371835   T   T   T
  0.3255868370671952  0.6641088581624750  0.6655203463296971   T   T   T
