Ag 
 1.0000000000000000
     8.5983832630900725    0.0000000000000000    0.3096632092506426
     4.2936155075093092    7.4496349315025547    0.3096632092506426
     0.0000000000000000    0.0000000000000000   39.8433329235828140
 Ag 
  36
Selective dynamics
Direct
  0.1568247935746421  0.1568247057575765  0.5885768539778716   T   T   T
  0.1568301195080246  0.4901591710927084  0.5885776327807034   T   T   T
  0.1568240777686096  0.8234913097624234  0.5885777311703591   T   T   T
  0.4901591642093754  0.1568301176785851  0.5885776314026212   T   T   T
  0.4901561254056651  0.4901561690027315  0.5885781255017970   T   T   T
  0.4901557434551584  0.8234925422653097  0.5885774610052963   T   T   T
  0.8234913601426498  0.1568240526935540  0.5885777239082435   T   T   T
  0.8234925214468064  0.4901557993854280  0.5885774587403454   T   T   T
  0.8234948648733804  0.8234948623535420  0.5885776976990986   T   T   T
  0.2745402432171311  0.2745402348120084  0.5291492007216622   T   T   T
  0.2745395817410284  0.6078743647427145  0.5291490617936231   T   T   T
  0.2745391369056154  0.9412009208740578  0.5291489623137945   T   T   T
  0.6078744216321934  0.2745395340658112  0.5291490574746683   T   T   T
  0.6078713385987993  0.6078713121113799  0.5291490543890394   T   T   T
  0.6078760008979015  0.9412027062029398  0.5291490420551294   T   T   T
  0.9412009652632940  0.2745391116546130  0.5291489640474911   T   T   T
  0.9412027133525279  0.6078759943931087  0.5291490423932720   T   T   T
  0.9412052009917478  0.9412052105829740  0.5291489687114217   T   T   T
  0.0588233949072055  0.0588233949072054  0.4705882352941176   F   F   F
  0.0588233949072055  0.3921567282405387  0.4705882352941173   F   F   F
  0.0588233949072055  0.7254900615738720  0.4705882352941176   F   F   F
  0.3921567282405388  0.0588233949072054  0.4705882352941176   F   F   F
  0.3921567282405387  0.3921567282405387  0.4705882352941176   F   F   F
  0.3921567282405388  0.7254900615738720  0.4705882352941173   F   F   F
  0.7254900615738720  0.0588233949072054  0.4705882352941176   F   F   F
  0.7254900615738721  0.3921567282405387  0.4705882352941173   F   F   F
  0.7254900615738720  0.7254900615738720  0.4705882352941176   F   F   F
  0.1764704537307346  0.1764704537307344  0.4117647058823530   F   F   F
  0.1764704537307346  0.5098037870640678  0.4117647058823530   F   F   F
  0.1764704537307346  0.8431371203974013  0.4117647058823529   F   F   F
  0.5098037870640679  0.1764704537307344  0.4117647058823530   F   F   F
  0.5098037870640678  0.5098037870640678  0.4117647058823530   F   F   F
  0.5098037870640678  0.8431371203974013  0.4117647058823530   F   F   F
  0.8431371203974012  0.1764704537307344  0.4117647058823530   F   F   F
  0.8431371203974014  0.5098037870640678  0.4117647058823530   F   F   F
  0.8431371203974007  0.8431371203974013  0.4117647058823529   F   F   F
