Ag Pd 
 1.0000000000000000
     8.3348369443761747    0.0000000000000000    0.0000000000000005
     4.1674184721880891    7.2181805302308319    0.0000000000000005
     0.0000000000000000    0.0000000000000000   47.6375610737127033
 Ag  Pd 
   9  27
Selective dynamics
Direct
  0.6666666666666667  0.6666666666666667  0.4761904572003339   F   F   F
  0.4444444444444448  0.4444444444444445  0.5238095048193816   F   F   F
  0.4444444444444446  1.1111111111111112  0.5238095048193816   F   F   F
  0.9990757686186692  0.6674097782021752  0.6225788414720981   T   T   T
  0.3346861944070435  0.6677609200913693  0.6227810693780070   T   T   T
  0.2229118306013672  0.2219163117101037  0.5717888477448447   T   T   T
  0.2246914808867738  0.8856002677270619  0.5725290208301090   T   T   T
  0.8888780138317313  0.2222712763751066  0.5717012260545300   T   T   T
  0.8898922504849481  0.8870380315726943  0.5723934906993343   T   T   T
  0.3333333924137755  0.3333333924137756  0.4761904825205235   F   F   F
  0.3333333924137756  1.0000000590804423  0.4761904825205235   F   F   F
  1.0000000590804421  0.3333333924137756  0.4761904825205235   F   F   F
  1.0000000590804421  1.0000000590804423  0.4761904825205235   F   F   F
  0.6666665485057828  0.3333333924137756  0.4761904825205235   F   F   F
  0.6666665485057829  1.0000000590804423  0.4761904825205235   F   F   F
  0.3333333924137759  0.6666665485057824  0.4761904825205235   F   F   F
  1.0000000590804428  0.6666665485057824  0.4761904825205235   F   F   F
  0.5560472107987163  0.5546439621126706  0.5716358359744068   T   T   T
  0.1111111701915532  0.1111111701915532  0.5238095301395711   F   F   F
  0.1111111701915533  0.7777778368582199  0.5238095301395711   F   F   F
  0.7777778368582201  0.1111111701915532  0.5238095301395711   F   F   F
  0.7777778368582201  0.7777778368582199  0.5238095301395711   F   F   F
  0.3361608111513654  0.3315528885508865  0.6193352947409501   T   T   T
  0.3351729298803341  1.0027279433733902  0.6202525978616593   T   T   T
  0.9997030510922704  0.3339409871937007  0.6198566780813038   T   T   T
  0.9977598219706691  1.0064990110167296  0.6208568271907052   T   T   T
  0.2228959660658053  0.5540716057539943  0.5720650871585521   T   T   T
  0.8893854702668632  0.5557082690597028  0.5712389527862286   T   T   T
  0.4444443262835602  0.7777778368582199  0.5238095301395711   F   F   F
  0.6676016521175865  0.3339137783262524  0.6195378787456044   T   T   T
  0.6635840595489131  1.0026832288110470  0.6197704600594542   T   T   T
  0.5568150137609332  0.2222165800473027  0.5718502582863819   T   T   T
  0.5575831591971377  0.8869992250963109  0.5716428608028299   T   T   T
  0.1111111701915534  0.4444443262835603  0.5238095301395711   F   F   F
  0.7777778368582202  0.4444443262835603  0.5238095301395711   F   F   F
  0.6677190994068305  0.6671436270469404  0.6187779121341180   T   T   T
