Ag Pd 
 1.0000000000000000
     8.3348369443761747    0.0000000000000000    0.0000000000000005
     4.1674184721880891    7.2181805302308319    0.0000000000000005
     0.0000000000000000    0.0000000000000000   47.6375610737127033
 Ag  Pd 
   9  27
Selective dynamics
Direct
  0.6666666666666667  0.6666666666666667  0.4761904572003339   F   F   F
  0.4444444444444448  0.4444444444444445  0.5238095048193816   F   F   F
  0.4444444444444446  1.1111111111111112  0.5238095048193816   F   F   F
  0.9991064344904993  0.6673074257666353  0.6226261749706966   T   T   T
  0.3346001034481512  0.6676931475156714  0.6228320042838229   T   T   T
  0.2228416279882793  0.2218471814907050  0.5717703498193056   T   T   T
  0.2247029012341974  0.8854941231643717  0.5725507435879519   T   T   T
  0.8888798679978283  0.2222442156182786  0.5716800064919580   T   T   T
  0.8899065583639308  0.8869909353578612  0.5724165269048049   T   T   T
  0.3333333924137755  0.3333333924137756  0.4761904825205235   F   F   F
  0.3333333924137756  1.0000000590804423  0.4761904825205235   F   F   F
  1.0000000590804421  0.3333333924137756  0.4761904825205235   F   F   F
  1.0000000590804421  1.0000000590804423  0.4761904825205235   F   F   F
  0.6666665485057828  0.3333333924137756  0.4761904825205235   F   F   F
  0.6666665485057829  1.0000000590804423  0.4761904825205235   F   F   F
  0.3333333924137759  0.6666665485057824  0.4761904825205235   F   F   F
  1.0000000590804428  0.6666665485057824  0.4761904825205235   F   F   F
  0.5559666899643471  0.5546153532703553  0.5716204214838245   T   T   T
  0.1111111701915532  0.1111111701915532  0.5238095301395711   F   F   F
  0.1111111701915533  0.7777778368582199  0.5238095301395711   F   F   F
  0.7777778368582201  0.1111111701915532  0.5238095301395711   F   F   F
  0.7777778368582201  0.7777778368582199  0.5238095301395711   F   F   F
  0.3362023698808743  0.3315476628823313  0.6192889169870558   T   T   T
  0.3353127997286153  1.0025966777710502  0.6202187041373892   T   T   T
  0.9996121965367631  0.3340237063660793  0.6198234830765854   T   T   T
  0.9977054081366094  1.0065092687681589  0.6208252634828177   T   T   T
  0.2228473632658301  0.5540591485971450  0.5720670196322885   T   T   T
  0.8893703122859876  0.5557221480604181  0.5712099115013817   T   T   T
  0.4444443262835602  0.7777778368582199  0.5238095301395711   F   F   F
  0.6675157007929111  0.3339651776825294  0.6195091226455484   T   T   T
  0.6634799417324154  1.0025982805467797  0.6197370360400125   T   T   T
  0.5567995335773209  0.2222033824549654  0.5718289821045939   T   T   T
  0.5575102152047030  0.8870863176119128  0.5716090333910216   T   T   T
  0.1111111701915534  0.4444443262835603  0.5238095301395711   F   F   F
  0.7777778368582202  0.4444443262835603  0.5238095301395711   F   F   F
  0.6677783002702113  0.6670026936105923  0.6187302791014315   T   T   T
