Ag Pd 
 1.0000000000000000
     8.5013114179517117    0.0000000000000000    0.0000000000000005
     4.2506557089758541    7.3623516534288900    0.0000000000000005
     0.0000000000000000    0.0000000000000000   48.5890419431158733
 Ag  Pd 
  26  10
Selective dynamics
Direct
  0.6666666666666671  0.6666666666666666  0.4761904911784334   F   F   F
  0.3333332867041333  0.3333332867041335  0.4761904711944905   F   F   F
  0.3333332867041333  0.9999999533708002  0.4761904711944905   F   F   F
  0.9999999533707997  0.3333332867041335  0.4761904711944905   F   F   F
  0.9999999533707999  0.9999999533708002  0.4761904711944905   F   F   F
  0.6666667599250664  0.3333332867041335  0.4761904711944905   F   F   F
  0.6666667599250664  0.9999999533708002  0.4761904711944905   F   F   F
  0.4444444444444445  0.4444444444444445  0.5238095387974809   F   F   F
  0.6669297856845497  0.6672129907571389  0.6203655795800085   T   T   T
  0.2237878210303831  0.2214769885997748  0.5714293314476667   T   T   T
  0.2215236094859878  0.8913135503348635  0.5715054516304996   T   T   T
  0.8878836123199441  0.2219725050493866  0.5711287037545053   T   T   T
  0.8854425577870502  0.8923474318473986  0.5713911554961209   T   T   T
  0.5573101872844846  0.5551376503541976  0.5715677435669732   T   T   T
  0.1111110644819112  0.7777777311485777  0.5238095188135381   F   F   F
  0.7777777311485781  0.7777777311485777  0.5238095188135381   F   F   F
  0.3322729733006294  0.3365668623226007  0.6203122416692251   T   T   T
  0.3331499022552101  0.9985003408249965  0.6203400546557756   T   T   T
  0.9995827097403218  0.3349391840658542  0.6207964816398228   T   T   T
  1.0017232361128199  0.9968203405437710  0.6210776455505175   T   T   T
  0.2233482792290917  0.5527070982268498  0.5711379640422408   T   T   T
  0.8879533210067763  0.5551853228622440  0.5712398847703130   T   T   T
  0.4444445377028442  0.1111110644819113  0.5238095188135381   F   F   F
  0.4444445377028442  0.7777777311485780  0.5238095188135381   F   F   F
  0.6655679116206320  0.3340788245052516  0.6200728273114069   T   T   T
  0.6673228432332963  0.9988971683849757  0.6197160897232403   T   T   T
  0.3333332867041338  0.6666667599250664  0.4761904711944905   F   F   F
  0.9999999533708005  0.6666667599250664  0.4761904711944905   F   F   F
  0.5562772282506286  0.2215267683193230  0.5717658597111611   T   T   T
  0.5548110154779896  0.8893721721246847  0.5719083299262622   T   T   T
  0.1111110644819112  0.4444445377028443  0.5238095188135381   F   F   F
  0.1111110644819112  1.1111112043695111  0.5238095188135381   F   F   F
  0.7777777311485784  0.4444445377028443  0.5238095188135381   F   F   F
  0.7777777311485777  1.1111112043695111  0.5238095188135381   F   F   F
  0.3312419617116374  0.6673909852636752  0.6176610094067440   T   T   T
  1.0011484726670288  0.6663028301427252  0.6175935022939028   T   T   T
