Ag  H  O 
 1.0000000000000000
     8.5983832630900725    0.0000000000000000    0.3096632092506426
     4.2936155075093092    7.4496349315025547    0.3096632092506426
     0.0000000000000000    0.0000000000000000   39.8433329235828140
 Ag  H   O  
  36   1   1
Selective dynamics
Direct
  0.1570569942674601  0.1564706966960856  0.5892536040913156   T   T   T
  0.1548364271902603  0.4897970329888566  0.5882885794744593   T   T   T
  0.1554034938683705  0.8251749456113384  0.5886890443469891   T   T   T
  0.4901071549637235  0.1549905021289672  0.5886752314048176   T   T   T
  0.4896263495358168  0.4896372452046442  0.5905291930444748   T   T   T
  0.4903480003166561  0.8244305002267919  0.5890267525087078   T   T   T
  0.8251247913590904  0.1556565677204730  0.5890061137685698   T   T   T
  0.8255408710960189  0.4897664886127817  0.5885909308123668   T   T   T
  0.8236160694585558  0.8233894724095445  0.5890972669255810   T   T   T
  0.2748087159263798  0.2743732788281842  0.5291521662623000   T   T   T
  0.2763587445320939  0.6069749706736812  0.5297234357936945   T   T   T
  0.2748847889008896  0.9408867538249285  0.5292876759729965   T   T   T
  0.6071140259564644  0.2761869523354991  0.5298410196955904   T   T   T
  0.6069930676171535  0.6070258477664533  0.5298123385392681   T   T   T
  0.6082870563778032  0.9408634683706475  0.5291590735159307   T   T   T
  0.9411484884096524  0.2744062690541759  0.5292395200001482   T   T   T
  0.9408979561861240  0.6084446157148149  0.5289540722860827   T   T   T
  0.9409521833912411  0.9411782052107691  0.5291710275013826   T   T   T
  0.0588233949072055  0.0588233949072054  0.4705882352941176   F   F   F
  0.0588233949072055  0.3921567282405387  0.4705882352941174   F   F   F
  0.0588233949072055  0.7254900615738720  0.4705882352941176   F   F   F
  0.3921567282405388  0.0588233949072054  0.4705882352941176   F   F   F
  0.3921567282405387  0.3921567282405387  0.4705882352941176   F   F   F
  0.3921567282405388  0.7254900615738720  0.4705882352941174   F   F   F
  0.7254900615738720  0.0588233949072054  0.4705882352941176   F   F   F
  0.7254900615738721  0.3921567282405387  0.4705882352941174   F   F   F
  0.7254900615738720  0.7254900615738720  0.4705882352941176   F   F   F
  0.1764704537307346  0.1764704537307344  0.4117647058823530   F   F   F
  0.1764704537307346  0.5098037870640678  0.4117647058823530   F   F   F
  0.1764704537307346  0.8431371203974013  0.4117647058823529   F   F   F
  0.5098037870640679  0.1764704537307344  0.4117647058823530   F   F   F
  0.5098037870640678  0.5098037870640678  0.4117647058823530   F   F   F
  0.5098037870640678  0.8431371203974013  0.4117647058823530   F   F   F
  0.8431371203974012  0.1764704537307344  0.4117647058823530   F   F   F
  0.8431371203974014  0.5098037870640678  0.4117647058823530   F   F   F
  0.8431371203974007  0.8431371203974013  0.4117647058823529   F   F   F
  0.5840593036625513  0.4885288342994740  0.6520491691923946   T   T   T
  0.4738756476661475  0.4909253253004822  0.6455878199299181   T   T   T
