Ag Pd 
 1.0000000000000000
     8.3348369443761747    0.0000000000000000    0.0000000000000005
     4.1674184721880891    7.2181805302308319    0.0000000000000005
     0.0000000000000000    0.0000000000000000   47.6375610737127033
 Ag  Pd 
   9  27
Selective dynamics
Direct
  0.6666666666666667  0.6666666666666667  0.4761904572003339   F   F   F
  0.4444444444444448  0.4444444444444445  0.5238095048193816   F   F   F
  0.4444444444444446  1.1111111111111112  0.5238095048193816   F   F   F
  0.9990817786760058  0.6675138365481998  0.6225142816387834   T   T   T
  0.3347023019820509  0.6678503987366654  0.6227243548960608   T   T   T
  0.2229263016572130  0.2219883713772076  0.5717562638671356   T   T   T
  0.2246794934232968  0.8856686229565290  0.5724739656971298   T   T   T
  0.8888942806647379  0.2222746687765847  0.5716782473176614   T   T   T
  0.8899058912022862  0.8870419597989134  0.5723371979572375   T   T   T
  0.3333333924137755  0.3333333924137756  0.4761904825205235   F   F   F
  0.3333333924137756  1.0000000590804423  0.4761904825205235   F   F   F
  1.0000000590804421  0.3333333924137756  0.4761904825205235   F   F   F
  1.0000000590804421  1.0000000590804423  0.4761904825205235   F   F   F
  0.6666665485057828  0.3333333924137756  0.4761904825205235   F   F   F
  0.6666665485057829  1.0000000590804423  0.4761904825205235   F   F   F
  0.3333333924137759  0.6666665485057824  0.4761904825205235   F   F   F
  1.0000000590804428  0.6666665485057824  0.4761904825205235   F   F   F
  0.5561015463880528  0.5546569183945178  0.5716188117611515   T   T   T
  0.1111111701915532  0.1111111701915532  0.5238095301395711   F   F   F
  0.1111111701915533  0.7777778368582199  0.5238095301395711   F   F   F
  0.7777778368582201  0.1111111701915532  0.5238095301395711   F   F   F
  0.7777778368582201  0.7777778368582199  0.5238095301395711   F   F   F
  0.3361290493566009  0.3315953101098855  0.6193372384381176   T   T   T
  0.3351337312460093  1.0027762976677632  0.6202239664509476   T   T   T
  0.9997301661634324  0.3339486570697239  0.6198325629213978   T   T   T
  0.9978046125448581  1.0064817307158362  0.6208507266421334   T   T   T
  0.2229148432598478  0.5540621428132946  0.5720391782200813   T   T   T
  0.8893906128116871  0.5556907398569064  0.5712247592319374   T   T   T
  0.4444443262835602  0.7777778368582199  0.5238095301395711   F   F   F
  0.6676277487624522  0.3339380590312955  0.6195253960821134   T   T   T
  0.6636370251723572  1.0027050998731946  0.6197559038338211   T   T   T
  0.5568246803602107  0.2222081981604382  0.5718346129036483   T   T   T
  0.5576262909645718  0.8869401644609141  0.5716313889767927   T   T   T
  0.1111111701915534  0.4444443262835603  0.5238095301395711   F   F   F
  0.7777778368582202  0.4444443262835603  0.5238095301395711   F   F   F
  0.6677100902487182  0.6672080019358456  0.6188036189945229   T   T   T
