Ag Pd 
 1.0000000000000000
     8.3348369443761747    0.0000000000000000    0.0000000000000005
     4.1674184721880891    7.2181805302308319    0.0000000000000005
     0.0000000000000000    0.0000000000000000   47.6375610737127033
 Ag  Pd 
   9  27
Selective dynamics
Direct
  0.6666666666666667  0.6666666666666667  0.4761904572003339   F   F   F
  0.4444444444444448  0.4444444444444445  0.5238095048193816   F   F   F
  0.4444444444444446  1.1111111111111112  0.5238095048193816   F   F   F
  0.9991636120140082  0.6671787799104814  0.6226547737809349   T   T   T
  0.3345309671780261  0.6675701120921806  0.6228616392148774   T   T   T
  0.2228334475549237  0.2217449649573217  0.5717711809612955   T   T   T
  0.2246989373896913  0.8854447983816337  0.5725889300990127   T   T   T
  0.8888929878589099  0.2222270262198116  0.5716787132438645   T   T   T
  0.8899020893265587  0.8870010943287765  0.5724572165564734   T   T   T
  0.3333333924137755  0.3333333924137756  0.4761904825205235   F   F   F
  0.3333333924137756  1.0000000590804423  0.4761904825205235   F   F   F
  1.0000000590804421  0.3333333924137756  0.4761904825205235   F   F   F
  1.0000000590804421  1.0000000590804423  0.4761904825205235   F   F   F
  0.6666665485057828  0.3333333924137756  0.4761904825205235   F   F   F
  0.6666665485057829  1.0000000590804423  0.4761904825205235   F   F   F
  0.3333333924137759  0.6666665485057824  0.4761904825205235   F   F   F
  1.0000000590804428  0.6666665485057824  0.4761904825205235   F   F   F
  0.5559040462819568  0.5545312010818426  0.5716137181086771   T   T   T
  0.1111111701915532  0.1111111701915532  0.5238095301395711   F   F   F
  0.1111111701915533  0.7777778368582199  0.5238095301395711   F   F   F
  0.7777778368582201  0.1111111701915532  0.5238095301395711   F   F   F
  0.7777778368582201  0.7777778368582199  0.5238095301395711   F   F   F
  0.3363007175855803  0.3315708079443610  0.6192205421472723   T   T   T
  0.3355364507994205  1.0024486223594919  0.6201648017240041   T   T   T
  0.9994380507760795  0.3341914225372305  0.6197788545936379   T   T   T
  0.9976519446398791  1.0065131274028618  0.6207696441939532   T   T   T
  0.2228577869361010  0.5539897986877668  0.5720807714463197   T   T   T
  0.8893511668590350  0.5557113537575257  0.5711850329311173   T   T   T
  0.4444443262835602  0.7777778368582199  0.5238095301395711   F   F   F
  0.6673913791680214  0.3340784228089112  0.6194673827283644   T   T   T
  0.6632999521347707  1.0025382893688921  0.6196863056942310   T   T   T
  0.5567348043667465  0.2222208266286888  0.5718256405142669   T   T   T
  0.5573823239479441  0.8872765740669064  0.5715855498086797   T   T   T
  0.1111111701915534  0.4444443262835603  0.5238095301395711   F   F   F
  0.7777778368582202  0.4444443262835603  0.5238095301395711   F   F   F
  0.6678994477203964  0.6667981171818360  0.6186722558759150   T   T   T
