Ag Pd 
 1.0000000000000000
     8.5013114179517117    0.0000000000000000    0.0000000000000005
     4.2506557089758541    7.3623516534288900    0.0000000000000005
     0.0000000000000000    0.0000000000000000   48.5890419431158733
 Ag  Pd 
  26  10
Selective dynamics
Direct
  0.6666666666666671  0.6666666666666666  0.4761904911784334   F   F   F
  0.3333332867041333  0.3333332867041335  0.4761904711944905   F   F   F
  0.3333332867041333  0.9999999533708002  0.4761904711944905   F   F   F
  0.9999999533707997  0.3333332867041335  0.4761904711944905   F   F   F
  0.9999999533707999  0.9999999533708002  0.4761904711944905   F   F   F
  0.6666667599250664  0.3333332867041335  0.4761904711944905   F   F   F
  0.6666667599250664  0.9999999533708002  0.4761904711944905   F   F   F
  0.4444444444444445  0.4444444444444445  0.5238095387974809   F   F   F
  0.6668637139490029  0.6672480843033360  0.6203023969966015   T   T   T
  0.2238259384667530  0.2214438073770446  0.5714510228699460   T   T   T
  0.2217011526414300  0.8910811436978515  0.5715280972910139   T   T   T
  0.8877956648977384  0.2220187703013063  0.5711578652236805   T   T   T
  0.8854286838300505  0.8921830061488628  0.5714077750917157   T   T   T
  0.5571021056710511  0.5552400097805045  0.5715619353499699   T   T   T
  0.1111110644819112  0.7777777311485777  0.5238095188135381   F   F   F
  0.7777777311485781  0.7777777311485777  0.5238095188135381   F   F   F
  0.3322466756383702  0.3366787108799695  0.6202422924389736   T   T   T
  0.3332068460918396  0.9984203209580129  0.6202982001958559   T   T   T
  0.9995604257759080  0.3349787496185510  0.6207570107006792   T   T   T
  1.0017142188132069  0.9967730003513839  0.6210123015135576   T   T   T
  0.2232518928767488  0.5529389124411883  0.5711713641189056   T   T   T
  0.8879826409834619  0.5553513407613530  0.5712527784165305   T   T   T
  0.4444445377028442  0.1111110644819113  0.5238095188135381   F   F   F
  0.4444445377028442  0.7777777311485780  0.5238095188135381   F   F   F
  0.6655011653682541  0.3341306320142611  0.6200445680681299   T   T   T
  0.6673227472462431  0.9988855149535146  0.6196966570821825   T   T   T
  0.3333332867041338  0.6666667599250664  0.4761904711944905   F   F   F
  0.9999999533708005  0.6666667599250664  0.4761904711944905   F   F   F
  0.5563032379640807  0.2214721232912280  0.5717762677448990   T   T   T
  0.5548476398947428  0.8894090524252263  0.5719237610377234   T   T   T
  0.1111110644819112  0.4444445377028443  0.5238095188135381   F   F   F
  0.1111110644819112  1.1111112043695111  0.5238095188135381   F   F   F
  0.7777777311485784  0.4444445377028443  0.5238095188135381   F   F   F
  0.7777777311485777  1.1111112043695111  0.5238095188135381   F   F   F
  0.3312424457844276  0.6673285062867871  0.6176992965733085   T   T   T
  1.0012183935409975  0.6662837626116805  0.6176294672371285   T   T   T
