Ag3 Pd1
1.0
   4.0075566350748524    0.0000000000000000    0.0000000000000000
   0.0000000000000000    4.0075566350748524    0.0000000000000000
   0.0000000000000000    0.0000000000000000    4.0075566350748524
Ag Pd
3 1
direct
  -0.0000001957042343   -0.0000001957042343   -0.0000001957042343 Ag
  -0.0000001957042343    0.4999995944643662    0.4999995944643662 Ag
   0.4999995944643661   -0.0000001957042343    0.4999995944643662 Ag
   0.4999995944643661    0.4999995944643662   -0.0000001957042343 Pd
