Ag Pd  C  O 
 1.0000000000000000
     8.3348369443761747    0.0000000000000000    0.0000000000000005
     4.1674184721880891    7.2181805302308319    0.0000000000000005
     0.0000000000000000    0.0000000000000000   47.6375610737127033
 Ag  Pd  C   O  
   9  27   1   1
Selective dynamics
Direct
  0.6666666666666667  0.6666666666666667  0.4761904572003339   F   F   F
  0.4444444444444448  0.4444444444444445  0.5238095048193816   F   F   F
  0.4444444444444446  1.1111111111111112  0.5238095048193816   F   F   F
  1.0004916663712409  0.6673580902059022  0.6222166973689849   T   T   T
  0.3314853436726973  0.6678904300439918  0.6225860104344424   T   T   T
  0.2230525497657204  0.2220182860666265  0.5717108000274218   T   T   T
  0.2249814561730041  0.8857181050464786  0.5724991039460789   T   T   T
  0.8888281721378066  0.2225532548412138  0.5716554389229672   T   T   T
  0.8896573956266014  0.8870881910863593  0.5723500628926420   T   T   T
  0.3333333924137755  0.3333333924137756  0.4761904825205235   F   F   F
  0.3333333924137756  1.0000000590804423  0.4761904825205235   F   F   F
  1.0000000590804421  0.3333333924137756  0.4761904825205235   F   F   F
  1.0000000590804421  1.0000000590804423  0.4761904825205235   F   F   F
  0.6666665485057828  0.3333333924137756  0.4761904825205235   F   F   F
  0.6666665485057829  1.0000000590804423  0.4761904825205235   F   F   F
  0.3333333924137759  0.6666665485057824  0.4761904825205235   F   F   F
  1.0000000590804428  0.6666665485057824  0.4761904825205235   F   F   F
  0.5568982756345844  0.5549554975567067  0.5720725785649021   T   T   T
  0.1111111701915532  0.1111111701915532  0.5238095301395711   F   F   F
  0.1111111701915533  0.7777778368582199  0.5238095301395711   F   F   F
  0.7777778368582201  0.1111111701915532  0.5238095301395711   F   F   F
  0.7777778368582201  0.7777778368582199  0.5238095301395711   F   F   F
  0.3358603527680402  0.3316369244024870  0.6193029403263105   T   T   T
  0.3313157148585016  1.0061668412111187  0.6203713935498247   T   T   T
  1.0017297298500554  0.3320342690449953  0.6198173961246835   T   T   T
  0.9971044830815613  1.0068119470492731  0.6206143437555741   T   T   T
  0.2230105059868417  0.5540901352332711  0.5719526365835965   T   T   T
  0.8876003199112690  0.5563197702939504  0.5716182401007605   T   T   T
  0.4444443262835602  0.7777778368582199  0.5238095301395711   F   F   F
  0.6669693737983164  0.3319940244906449  0.6195720869640879   T   T   T
  0.6628310455661879  1.0059893539467104  0.6198401125175612   T   T   T
  0.5568577651105502  0.2221255702804217  0.5718682207136057   T   T   T
  0.5581991150397813  0.8858351201104921  0.5722037037115593   T   T   T
  0.1111111701915534  0.4444443262835603  0.5238095301395711   F   F   F
  0.7777778368582202  0.4444443262835603  0.5238095301395711   F   F   F
  0.6653729066296947  0.6684943311541457  0.6206354067996092   T   T   T
  0.6664678167821148  0.6678833179141257  0.6596551415585061   T   T   T
  0.6670526508431127  0.6663040998963509  0.6839846950178575   T   T   T
