Ag Pd  C  O 
 1.0000000000000000
     8.3348369443761747    0.0000000000000000    0.0000000000000005
     4.1674184721880891    7.2181805302308319    0.0000000000000005
     0.0000000000000000    0.0000000000000000   47.6375610737127033
 Ag  Pd  C   O  
   9  27   1   1
Selective dynamics
Direct
  0.6666666666666667  0.6666666666666667  0.4761904572003339   F   F   F
  0.4444444444444448  0.4444444444444445  0.5238095048193816   F   F   F
  0.4444444444444446  1.1111111111111112  0.5238095048193816   F   F   F
  1.0004945170179596  0.6678303761249154  0.6221466600468398   T   T   T
  0.3313999726619755  0.6682598921734790  0.6224900383485188   T   T   T
  0.2230206601545968  0.2222859366158136  0.5717508234698429   T   T   T
  0.2249161353655380  0.8859711500584211  0.5724338296086677   T   T   T
  0.8886931057689010  0.2227354361349360  0.5716893566749871   T   T   T
  0.8895599352660476  0.8872596269009612  0.5722869145022943   T   T   T
  0.3333333924137755  0.3333333924137756  0.4761904825205235   F   F   F
  0.3333333924137756  1.0000000590804423  0.4761904825205235   F   F   F
  1.0000000590804421  0.3333333924137756  0.4761904825205235   F   F   F
  1.0000000590804421  1.0000000590804423  0.4761904825205235   F   F   F
  0.6666665485057828  0.3333333924137756  0.4761904825205235   F   F   F
  0.6666665485057829  1.0000000590804423  0.4761904825205235   F   F   F
  0.3333333924137759  0.6666665485057824  0.4761904825205235   F   F   F
  1.0000000590804428  0.6666665485057824  0.4761904825205235   F   F   F
  0.5568195290965329  0.5554799008433220  0.5720202445953394   T   T   T
  0.1111111701915532  0.1111111701915532  0.5238095301395711   F   F   F
  0.1111111701915533  0.7777778368582199  0.5238095301395711   F   F   F
  0.7777778368582201  0.1111111701915532  0.5238095301395711   F   F   F
  0.7777778368582201  0.7777778368582199  0.5238095301395711   F   F   F
  0.3354424454189755  0.3318759578198792  0.6195464766121141   T   T   T
  0.3308761870324901  1.0065459284155660  0.6204594803539020   T   T   T
  1.0018781447490117  0.3316451530169542  0.6199498441449626   T   T   T
  0.9972811949757486  1.0066268196600081  0.6208025656703917   T   T   T
  0.2230695008557217  0.5542222085942123  0.5719600808682643   T   T   T
  0.8872618595099055  0.5568317213666960  0.5716129030298032   T   T   T
  0.4444443262835602  0.7777778368582199  0.5238095301395711   F   F   F
  0.6672826804554135  0.3316890211652960  0.6197015418251136   T   T   T
  0.6630001316220927  1.0063602176953161  0.6199662234364833   T   T   T
  0.5569281037154922  0.2221580963066764  0.5719290119256517   T   T   T
  0.5585276354188298  0.8854884788075671  0.5721457090160892   T   T   T
  0.1111111701915534  0.4444443262835603  0.5238095301395711   F   F   F
  0.7777778368582202  0.4444443262835603  0.5238095301395711   F   F   F
  0.6653967952313000  0.6687426796070107  0.6206187683451813   T   T   T
  0.6661639230689459  0.6680935784194386  0.6594745280157230   T   T   T
  0.6672842631388300  0.6662405237694229  0.6838961043556577   T   T   T
