Ag Pd  C  O 
 1.0000000000000000
     8.3348369443761747    0.0000000000000000    0.0000000000000005
     4.1674184721880891    7.2181805302308319    0.0000000000000005
     0.0000000000000000    0.0000000000000000   47.6375610737127033
 Ag  Pd  C   O  
   9  27   1   1
Selective dynamics
Direct
  0.6666666666666667  0.6666666666666667  0.4761904572003339   F   F   F
  0.4444444444444448  0.4444444444444445  0.5238095048193816   F   F   F
  0.4444444444444446  1.1111111111111112  0.5238095048193816   F   F   F
  1.0005094463878310  0.6673125083308692  0.6222246347208376   T   T   T
  0.3314761213120613  0.6678595974692314  0.6225974351333640   T   T   T
  0.2230506233180262  0.2220071220297748  0.5717082271186608   T   T   T
  0.2249873014152940  0.8857044250450301  0.5725056293152186   T   T   T
  0.8888338741321153  0.2225510153993810  0.5716525447139792   T   T   T
  0.8896579369496367  0.8870831627594488  0.5723577146294935   T   T   T
  0.3333333924137755  0.3333333924137756  0.4761904825205235   F   F   F
  0.3333333924137756  1.0000000590804423  0.4761904825205235   F   F   F
  1.0000000590804421  0.3333333924137756  0.4761904825205235   F   F   F
  1.0000000590804421  1.0000000590804423  0.4761904825205235   F   F   F
  0.6666665485057828  0.3333333924137756  0.4761904825205235   F   F   F
  0.6666665485057829  1.0000000590804423  0.4761904825205235   F   F   F
  0.3333333924137759  0.6666665485057824  0.4761904825205235   F   F   F
  1.0000000590804428  0.6666665485057824  0.4761904825205235   F   F   F
  0.5568987619126645  0.5549198601786915  0.5720893597853185   T   T   T
  0.1111111701915532  0.1111111701915532  0.5238095301395711   F   F   F
  0.1111111701915533  0.7777778368582199  0.5238095301395711   F   F   F
  0.7777778368582201  0.1111111701915532  0.5238095301395711   F   F   F
  0.7777778368582201  0.7777778368582199  0.5238095301395711   F   F   F
  0.3358872026346584  0.3316070241777742  0.6192913840871421   T   T   T
  0.3313151525691028  1.0061505282675940  0.6203740880638476   T   T   T
  1.0017366999940966  0.3320250912730169  0.6198171430783733   T   T   T
  0.9970917588401876  1.0068239576328935  0.6206094133588010   T   T   T
  0.2230009718362981  0.5540836882588893  0.5719543302473695   T   T   T
  0.8876230355698815  0.5562862765158659  0.5716311550872331   T   T   T
  0.4444443262835602  0.7777778368582199  0.5238095301395711   F   F   F
  0.6669743202652536  0.3319790282575960  0.6195720370695250   T   T   T
  0.6628374251812456  1.0059640270212320  0.6198391370580341   T   T   T
  0.5568484847255516  0.2221316554933219  0.5718642493005260   T   T   T
  0.5581741533584100  0.8858582470332853  0.5722197335760001   T   T   T
  0.1111111701915534  0.4444443262835603  0.5238095301395711   F   F   F
  0.7777778368582202  0.4444443262835603  0.5238095301395711   F   F   F
  0.6653764306614631  0.6684658034351537  0.6206233386670632   T   T   T
  0.6664844394372466  0.6678634866355312  0.6596907743875846   T   T   T
  0.6670339413666114  0.6663103211747567  0.6839698126646174   T   T   T
