Pd  C  O 
 1.0000000000000000
     8.2582115393440390    0.0000000000000000    0.0000000000000006
    -4.1291057696720213    7.1518209828977302    0.0000000000000006
     0.0000000000000000    0.0000000000000000   40.4568089187138042
 Pd  C   O  
  36   1   1
Selective dynamics
Direct
  0.0000003242213467  0.0000001621106736  0.4166666666666669   F   F   F
  0.0000003242213467  0.3333334954440070  0.4166666666666669   F   F   F
  0.0000003242213466  0.6666668287773403  0.4166666666666669   F   F   F
  0.3333336575546800  0.0000001621106736  0.4166666666666669   F   F   F
  0.3333336575546800  0.3333334954440070  0.4166666666666669   F   F   F
  0.3333336575546799  0.6666668287773403  0.4166666666666669   F   F   F
  0.6666669908880133  0.0000001621106736  0.4166666666666669   F   F   F
  0.6666669908880132  0.3333334954440070  0.4166666666666669   F   F   F
  0.6666669908880132  0.6666668287773403  0.4166666666666669   F   F   F
  0.1111114353324573  0.2222223843328956  0.4722222222222223   F   F   F
  0.1111114353324573  0.5555557176662289  0.4722222222222223   F   F   F
  0.1111114353324574  0.8888890509995623  0.4722222222222223   F   F   F
  0.4444447686657906  0.2222223843328956  0.4722222222222223   F   F   F
  0.4444447686657906  0.5555557176662289  0.4722222222222223   F   F   F
  0.4444447686657906  0.8888890509995623  0.4722222222222223   F   F   F
  0.7777781019991239  0.2222223843328956  0.4722222222222223   F   F   F
  0.7777781019991239  0.5555557176662289  0.4722222222222223   F   F   F
  0.7777781019991239  0.8888890509995623  0.4722222222222223   F   F   F
  0.2221481028883648  0.1111811452829490  0.5274691575411492   T   T   T
  0.2221568015786908  0.4444110213271622  0.5275352900728352   T   T   T
  0.2221476284631791  0.7776329778162608  0.5274689819547982   T   T   T
  0.5556969495740844  0.1111801459640520  0.5274690105756894   T   T   T
  0.5565112557704824  0.4463615051670147  0.5281695644717855   T   T   T
  0.5565127828293630  0.7768140759529955  0.5281693638862835   T   T   T
  0.8889186333888601  0.1111721351108395  0.5275353229985956   T   T   T
  0.8889178635067577  0.4444119047531159  0.5275351733281008   T   T   T
  0.8869666499946806  0.7768176316259088  0.5281696110648393   T   T   T
  0.0023028210287125  0.0020614199465763  0.5836941194822589   T   T   T
  0.0000015851498985  0.3333332665749708  0.5836828377061725   T   T   T
  0.0023074729538225  0.6669085252036592  0.5836928410592116   T   T   T
  0.3333331678825371  0.0000018152154761  0.5838148367886825   T   T   T
  0.3312715604149876  0.3310300845422748  0.5836939961722003   T   T   T
  0.3312749621379248  0.6669100359665874  0.5836920219534613   T   T   T
  0.6664249005448039  0.0020657066547914  0.5836927875281367   T   T   T
  0.6664274429031536  0.3310335100801584  0.5836921869207576   T   T   T
  0.6666693778625675  0.6666693731251409  0.5867502462653236   T   T   T
  0.6666676041894792  0.6666675987231521  0.6324211960356042   T   T   T
  0.6666547815867218  0.6666546221001769  0.6611646422450114   T   T   T
