Ag Pd  C  O 
 1.0000000000000000
     8.3348369443761747    0.0000000000000000    0.0000000000000005
     4.1674184721880891    7.2181805302308319    0.0000000000000005
     0.0000000000000000    0.0000000000000000   47.6375610737127033
 Ag  Pd  C   O  
   9  27   1   1
Selective dynamics
Direct
  0.6666666666666667  0.6666666666666667  0.4761904572003339   F   F   F
  0.4444444444444448  0.4444444444444445  0.5238095048193816   F   F   F
  0.4444444444444446  1.1111111111111112  0.5238095048193816   F   F   F
  1.0005063853148670  0.6675016831620182  0.6221984664318935   T   T   T
  0.3314096869239427  0.6680223367827881  0.6225629279329585   T   T   T
  0.2230329519522087  0.2220966785552846  0.5717114810303243   T   T   T
  0.2250175235935445  0.8857255659310104  0.5724695570928561   T   T   T
  0.8887636468325334  0.2226200089201577  0.5716518392360475   T   T   T
  0.8896100348067281  0.8870899739150233  0.5723204015399338   T   T   T
  0.3333333924137755  0.3333333924137756  0.4761904825205235   F   F   F
  0.3333333924137756  1.0000000590804423  0.4761904825205235   F   F   F
  1.0000000590804421  0.3333333924137756  0.4761904825205235   F   F   F
  1.0000000590804421  1.0000000590804423  0.4761904825205235   F   F   F
  0.6666665485057828  0.3333333924137756  0.4761904825205235   F   F   F
  0.6666665485057829  1.0000000590804423  0.4761904825205235   F   F   F
  0.3333333924137759  0.6666665485057824  0.4761904825205235   F   F   F
  1.0000000590804428  0.6666665485057824  0.4761904825205235   F   F   F
  0.5568531430410067  0.5551938097713026  0.5720625942319922   T   T   T
  0.1111111701915532  0.1111111701915532  0.5238095301395711   F   F   F
  0.1111111701915533  0.7777778368582199  0.5238095301395711   F   F   F
  0.7777778368582201  0.1111111701915532  0.5238095301395711   F   F   F
  0.7777778368582201  0.7777778368582199  0.5238095301395711   F   F   F
  0.3357203944680479  0.3316873964695869  0.6193810349830861   T   T   T
  0.3311230108376000  1.0062816507382730  0.6204081476189170   T   T   T
  1.0018134188550789  0.3318420307540556  0.6198596472475403   T   T   T
  0.9971589444379710  1.0067398322953554  0.6206679612428780   T   T   T
  0.2229979201401429  0.5541708337390080  0.5719514726156557   T   T   T
  0.8874190534751784  0.5565616562317506  0.5716230086951587   T   T   T
  0.4444443262835602  0.7777778368582199  0.5238095301395711   F   F   F
  0.6671231758884018  0.3318097751793513  0.6196138288822606   T   T   T
  0.6629408640260938  1.0060743686039033  0.6198819635826551   T   T   T
  0.5569120451351712  0.2221121933008617  0.5718730698798813   T   T   T
  0.5583690318812190  0.8856006557447298  0.5721863220187072   T   T   T
  0.1111111701915534  0.4444443262835603  0.5238095301395711   F   F   F
  0.7777778368582202  0.4444443262835603  0.5238095301395711   F   F   F
  0.6653864394268625  0.6685286658107211  0.6206788714049377   T   T   T
  0.6663730568035638  0.6679439140014236  0.6595408912322496   T   T   T
  0.6671197731722844  0.6663014038463341  0.6839951912286765   T   T   T
