Ag  H Pd  O 
 1.0000000000000000
     8.3348369443761747    0.0000000000000000    0.0000000000000005
     4.1674184721880891    7.2181805302308319    0.0000000000000005
     0.0000000000000000    0.0000000000000000   47.6375610737127033
 Ag  H   Pd  O  
   9   1  27   1
Selective dynamics
Direct
  0.6666666666666667  0.6666666666666667  0.4761904572003339   F   F   F
  0.4444444444444448  0.4444444444444445  0.5238095048193816   F   F   F
  0.4444444444444446  1.1111111111111112  0.5238095048193816   F   F   F
  0.9993036908531698  0.6674176373561655  0.6218464382141479   T   T   T
  0.3372405745826575  0.6666318282305670  0.6244804526844786   T   T   T
  0.2231478823651936  0.2224409886087946  0.5716838194475313   T   T   T
  0.2257920540547376  0.8847610978238638  0.5728499272351378   T   T   T
  0.8893696523241036  0.2226226269417787  0.5716679515549666   T   T   T
  0.8903758939517323  0.8875631967588720  0.5722364437324730   T   T   T
  0.4321920343713272  0.6729398177378464  0.6782818423160387   T   T   T
  0.3333333924137755  0.3333333924137756  0.4761904825205235   F   F   F
  0.3333333924137756  1.0000000590804423  0.4761904825205235   F   F   F
  1.0000000590804421  0.3333333924137756  0.4761904825205235   F   F   F
  1.0000000590804421  1.0000000590804423  0.4761904825205235   F   F   F
  0.6666665485057828  0.3333333924137756  0.4761904825205235   F   F   F
  0.6666665485057829  1.0000000590804423  0.4761904825205235   F   F   F
  0.3333333924137759  0.6666665485057824  0.4761904825205235   F   F   F
  1.0000000590804428  0.6666665485057824  0.4761904825205235   F   F   F
  0.5551798940877767  0.5556455611804256  0.5719553911643281   T   T   T
  0.1111111701915532  0.1111111701915532  0.5238095301395711   F   F   F
  0.1111111701915533  0.7777778368582199  0.5238095301395711   F   F   F
  0.7777778368582201  0.1111111701915532  0.5238095301395711   F   F   F
  0.7777778368582201  0.7777778368582199  0.5238095301395711   F   F   F
  0.3373174942807838  0.3297891774353545  0.6191360161853272   T   T   T
  0.3356789145171205  1.0042436357674491  0.6200495173720973   T   T   T
  1.0006193029909123  0.3339432158456257  0.6198923950246585   T   T   T
  0.9972166227342216  1.0078570142205736  0.6206659773669884   T   T   T
  0.2245591155236145  0.5552206365888737  0.5723609347235287   T   T   T
  0.8898738720405095  0.5557158769579840  0.5711654691800887   T   T   T
  0.4444443262835602  0.7777778368582199  0.5238095301395711   F   F   F
  0.6696058332710932  0.3324568584993418  0.6194307913885060   T   T   T
  0.6648223142140856  1.0025743918729042  0.6197143380896423   T   T   T
  0.5571781259229743  0.2224046787007944  0.5718127670110171   T   T   T
  0.5579268740719555  0.8872199378323276  0.5716700343135814   T   T   T
  0.1111111701915534  0.4444443262835603  0.5238095301395711   F   F   F
  0.7777778368582202  0.4444443262835603  0.5238095301395711   F   F   F
  0.6702949243966458  0.6671330305227005  0.6187484045717616   T   T   T
  0.3268268883299231  0.6759620680483177  0.6687822571050991   T   T   T
