Ag  H Pd  O 
 1.0000000000000000
     8.3348369443761747    0.0000000000000000    0.0000000000000005
     4.1674184721880891    7.2181805302308319    0.0000000000000005
     0.0000000000000000    0.0000000000000000   47.6375610737127033
 Ag  H   Pd  O  
   9   1  27   1
Selective dynamics
Direct
  0.6666666666666667  0.6666666666666667  0.4761904572003339   F   F   F
  0.4444444444444448  0.4444444444444445  0.5238095048193816   F   F   F
  0.4444444444444446  1.1111111111111112  0.5238095048193816   F   F   F
  0.9985936199740306  0.6671409842618292  0.6221111862938480   T   T   T
  0.3351320581900806  0.6651864986133854  0.6222832479647595   T   T   T
  0.2230460042375502  0.2220102968489260  0.5717356529749410   T   T   T
  0.2246986535021342  0.8858413102745111  0.5724727616025269   T   T   T
  0.8886868982915749  0.2225901517538683  0.5717053681999551   T   T   T
  0.8901551793830188  0.8874249598256199  0.5722758620961719   T   T   T
  0.4277118224613806  0.6699855644378454  0.6727476272695695   T   T   T
  0.3333333924137755  0.3333333924137756  0.4761904825205235   F   F   F
  0.3333333924137756  1.0000000590804423  0.4761904825205235   F   F   F
  1.0000000590804421  0.3333333924137756  0.4761904825205235   F   F   F
  1.0000000590804421  1.0000000590804423  0.4761904825205235   F   F   F
  0.6666665485057828  0.3333333924137756  0.4761904825205235   F   F   F
  0.6666665485057829  1.0000000590804423  0.4761904825205235   F   F   F
  0.3333333924137759  0.6666665485057824  0.4761904825205235   F   F   F
  1.0000000590804428  0.6666665485057824  0.4761904825205235   F   F   F
  0.5549853479450643  0.5552795098830833  0.5716682141013161   T   T   T
  0.1111111701915532  0.1111111701915532  0.5238095301395711   F   F   F
  0.1111111701915533  0.7777778368582199  0.5238095301395711   F   F   F
  0.7777778368582201  0.1111111701915532  0.5238095301395711   F   F   F
  0.7777778368582201  0.7777778368582199  0.5238095301395711   F   F   F
  0.3371487245065494  0.3292959040445683  0.6191856285820598   T   T   T
  0.3366136232565222  1.0024327756270865  0.6201047978787907   T   T   T
  1.0003037441370242  0.3340339738347042  0.6197495045900659   T   T   T
  0.9978688616770161  1.0073474182332973  0.6207547386014234   T   T   T
  0.2237615875936911  0.5541776365689967  0.5719240147279753   T   T   T
  0.8894855261139852  0.5556944025549559  0.5710098439761399   T   T   T
  0.4444443262835602  0.7777778368582199  0.5238095301395711   F   F   F
  0.6695000742121962  0.3323168350353395  0.6194721780043011   T   T   T
  0.6639729583241468  1.0024836691941048  0.6195738486285480   T   T   T
  0.5565698045114501  0.2223769336782866  0.5717931513479861   T   T   T
  0.5573791800850643  0.8877425761103800  0.5715133197550175   T   T   T
  0.1111111701915534  0.4444443262835603  0.5238095301395711   F   F   F
  0.7777778368582202  0.4444443262835603  0.5238095301395711   F   F   F
  0.6701354164502622  0.6660934847488058  0.6184137498925241   T   T   T
  0.3146372946643107  0.6709320956665202  0.6665031089319309   T   T   T
