Ag Pd  C  O 
 1.0000000000000000
     8.5013114179517117    0.0000000000000000    0.0000000000000005
     4.2506557089758541    7.3623516534288900    0.0000000000000005
     0.0000000000000000    0.0000000000000000   48.5890419431158733
 Ag  Pd  C   O  
  26  10   1   1
Selective dynamics
Direct
  0.6666666666666671  0.6666666666666666  0.4761904911784334   F   F   F
  0.3333332867041333  0.3333332867041335  0.4761904711944905   F   F   F
  0.3333332867041333  0.9999999533708002  0.4761904711944905   F   F   F
  0.9999999533707997  0.3333332867041335  0.4761904711944905   F   F   F
  0.9999999533707999  0.9999999533708002  0.4761904711944905   F   F   F
  0.6666667599250664  0.3333332867041335  0.4761904711944905   F   F   F
  0.6666667599250664  0.9999999533708002  0.4761904711944905   F   F   F
  0.4444444444444445  0.4444444444444445  0.5238095387974809   F   F   F
  0.6679858505979884  0.6675327720328055  0.6201109689069485   T   T   T
  0.2234599398612908  0.2217313443224657  0.5713159082201776   T   T   T
  0.2231925255477397  0.8883065675984479  0.5718379225156108   T   T   T
  0.8876671381463502  0.2222883482362666  0.5711051448164040   T   T   T
  0.8853296963551043  0.8918285893213576  0.5713492599775455   T   T   T
  0.5547452573029874  0.5565218474580460  0.5718192144270428   T   T   T
  0.1111110644819112  0.7777777311485777  0.5238095188135381   F   F   F
  0.7777777311485781  0.7777777311485777  0.5238095188135381   F   F   F
  0.3321297158277875  0.3351092527741143  0.6199697559430252   T   T   T
  0.3333415235098952  1.0002650626244369  0.6200482620627024   T   T   T
  0.9995463208563298  0.3349680372263106  0.6204708176936191   T   T   T
  0.9997888809563600  0.9985145626835013  0.6204767415087477   T   T   T
  0.2243245849828733  0.5550245034907102  0.5716178429757698   T   T   T
  0.8880787743646066  0.5557319030708464  0.5712229215630958   T   T   T
  0.4444445377028442  0.1111110644819113  0.5238095188135381   F   F   F
  0.4444445377028442  0.7777777311485780  0.5238095188135381   F   F   F
  0.6670345478920432  0.3323904707414023  0.6199173105759561   T   T   T
  0.6669328835398308  0.9991749317402711  0.6195522020702211   T   T   T
  0.3333332867041338  0.6666667599250664  0.4761904711944905   F   F   F
  0.9999999533708005  0.6666667599250664  0.4761904711944905   F   F   F
  0.5558671250452871  0.2221250552797812  0.5716991052655062   T   T   T
  0.5543249509895048  0.8894509588235480  0.5718473948812302   T   T   T
  0.1111110644819112  0.4444445377028443  0.5238095188135381   F   F   F
  0.1111110644819112  1.1111112043695111  0.5238095188135381   F   F   F
  0.7777777311485784  0.4444445377028443  0.5238095188135381   F   F   F
  0.7777777311485777  1.1111112043695111  0.5238095188135381   F   F   F
  0.3320888284284896  0.6669779898622862  0.6210988286748529   T   T   T
  0.9989599873903734  0.6667132230415819  0.6177294139532892   T   T   T
  0.3338552581450325  0.6654241850101632  0.6601529792087825   T   T   T
  0.3324287289197929  0.6667548711808402  0.6839067337124812   T   T   T
