Ag2 Pd2
1.0
   3.9940308933022179    0.0000000000000000    0.0000000000000000
   0.0000000000000000    3.9603752917083397    0.0000000000000000
   0.0000000000000000    0.0000000000000000    3.9603752917083397
Ag Pd
2 2
direct
  -0.0000002378808143   -0.0000002378809007   -0.0000002378809007 Ag
  -0.0000002378808143    0.4999999281127920    0.4999999281127920 Ag
   0.4999997465527647   -0.0000002378809007    0.4999999281127920 Pd
   0.4999997465527647    0.4999999281127920   -0.0000002378809007 Pd
