Ag  H Pd  O 
 1.0000000000000000
     8.4012246744318553    0.0000000000000000    0.0000000000000006
     0.0000000000000016    9.7556249397631500    0.0778334351619916
     0.0000000000000000    0.0000000000000000   41.2743430770740716
 Ag  H   Pd  O  
  24   1  24   1
Selective dynamics
Direct
  0.1643302090712093  0.2518965076287804  0.5848394899949129   T   T   T
  0.1660688378425232  0.7520610029966691  0.5855077246140281   T   T   T
  0.4986134687794941  0.2508689957549851  0.5860325612479734   T   T   T
  0.4998369064217036  0.7519056312692641  0.5855740990643273   T   T   T
  0.8335617149037734  0.2518911376670492  0.5849875533833176   T   T   T
  0.8332922198745252  0.7519844882506632  0.5855255300463904   T   T   T
  0.1665948139674159  0.4165826021503991  0.5279275244653757   T   T   T
  0.1666541771123018  0.9165562370255279  0.5279735534835809   T   T   T
  0.4998928729184083  0.4158671112594207  0.5283214911367837   T   T   T
  0.4999073284944265  0.9162821267376189  0.5279653235966714   T   T   T
  0.8330650401387115  0.4165336294179424  0.5279784306909893   T   T   T
  0.8329278137457303  0.9165298086185873  0.5280077687051788   T   T   T
  0.1666664815226225  0.0833334535709418  0.4722222217898217   F   F   F
  0.1666664815226226  0.5833334535709418  0.4722222217898217   F   F   F
  0.4999998148559556  0.0833334535709418  0.4722222217898217   F   F   F
  0.4999998148559556  0.5833334535709418  0.4722222217898217   F   F   F
  0.8333331481892892  0.0833334535709418  0.4722222217898217   F   F   F
  0.8333331481892892  0.5833334535709418  0.4722222217898217   F   F   F
  0.1666664815226225  0.2500001202376085  0.4166666662342661   F   F   F
  0.1666664815226226  0.7500001202376085  0.4166666662342661   F   F   F
  0.4999998148559556  0.2500001202376085  0.4166666662342661   F   F   F
  0.4999998148559556  0.7500001202376085  0.4166666662342661   F   F   F
  0.8333331481892892  0.2500001202376085  0.4166666662342661   F   F   F
  0.8333331481892892  0.7500001202376085  0.4166666662342661   F   F   F
  0.6030716701133397  0.2523075230676172  0.6460170925544455   T   T   T
  0.3323077669964375  0.0013650058911292  0.5830290724365281   T   T   T
  0.3323506223122701  0.5051387021618309  0.5830148792982816   T   T   T
  0.6666971114831736  0.0016709988521796  0.5831542778306168   T   T   T
  0.6666927777250379  0.5046467923377101  0.5831848005854199   T   T   T
  0.9994807077348283  0.0032797549672349  0.5831897792014625   T   T   T
  0.9995781459060702  0.5040570555367774  0.5831390520233474   T   T   T
  0.3339567425836598  0.1684344782001215  0.5282832780444607   T   T   T
  0.3333596438915485  0.6678516452519445  0.5280509156218166   T   T   T
  0.6654899413368682  0.1683956168789381  0.5283173845538808   T   T   T
  0.6665780680767950  0.6676828107182362  0.5281081478003848   T   T   T
  0.9996437032673023  0.1675392412871641  0.5278512082954131   T   T   T
  0.9999260776129246  0.6680585637558456  0.5280447167472148   T   T   T
  0.3333331481892897  0.3333334587597487  0.4722222226546229   F   F   F
  0.3333331481892897  0.8333334587597487  0.4722222226546229   F   F   F
  0.6666664815226231  0.3333334587597487  0.4722222226546229   F   F   F
  0.6666664815226231  0.8333334587597487  0.4722222226546229   F   F   F
  0.9999998148559561  0.3333334587597487  0.4722222226546229   F   F   F
  0.9999998148559563  0.8333334587597487  0.4722222226546229   F   F   F
  0.3333331481892892  0.0000001254264155  0.4166666670990671   F   F   F
  0.3333331481892892  0.5000001254264155  0.4166666670990673   F   F   F
  0.6666664815226225  0.0000001254264155  0.4166666670990671   F   F   F
  0.6666664815226224  0.5000001254264155  0.4166666670990673   F   F   F
  0.9999998148559557  0.0000001254264155  0.4166666670990671   F   F   F
  0.9999998148559557  0.5000001254264155  0.4166666670990673   F   F   F
  0.4901864748428679  0.2621885151919627  0.6403839767680579   T   T   T
