Ag Pd  C  O 
 1.0000000000000000
     8.4012246744318553    0.0000000000000000    0.0000000000000006
     0.0000000000000016    9.7556249397631500    0.0778334351619916
     0.0000000000000000    0.0000000000000000   41.2743430770740716
 Ag  Pd  C   O  
  24  24   1   1
Selective dynamics
Direct
  0.1649021688844968  0.2506396864636820  0.5849846654496247   T   T   T
  0.1662420149956823  0.7507513926957030  0.5856509768193113   T   T   T
  0.4999800721368030  0.2484318073651885  0.5853113898122713   T   T   T
  0.4999951150346825  0.7505859364850180  0.5857131219006959   T   T   T
  0.8350558650864222  0.2506387112829608  0.5849881107786702   T   T   T
  0.8337453567185658  0.7507512499434363  0.5856520039353164   T   T   T
  0.1666502208717804  0.4164190109616014  0.5279854690391939   T   T   T
  0.1667286742535042  0.9162513997576310  0.5280204588762886   T   T   T
  0.4999989613190133  0.4163470740493941  0.5280721257942365   T   T   T
  0.5000021220271279  0.9162394729336335  0.5280470078101763   T   T   T
  0.8333468202822223  0.4164170453990654  0.5279860749350089   T   T   T
  0.8332736317741515  0.9162505389286802  0.5280207086992197   T   T   T
  0.1666664815226225  0.0833334535709418  0.4722222217898217   F   F   F
  0.1666664815226226  0.5833334535709418  0.4722222217898217   F   F   F
  0.4999998148559556  0.0833334535709418  0.4722222217898217   F   F   F
  0.4999998148559556  0.5833334535709418  0.4722222217898217   F   F   F
  0.8333331481892892  0.0833334535709418  0.4722222217898217   F   F   F
  0.8333331481892892  0.5833334535709418  0.4722222217898217   F   F   F
  0.1666664815226225  0.2500001202376085  0.4166666662342661   F   F   F
  0.1666664815226226  0.7500001202376085  0.4166666662342661   F   F   F
  0.4999998148559556  0.2500001202376085  0.4166666662342661   F   F   F
  0.4999998148559556  0.7500001202376085  0.4166666662342661   F   F   F
  0.8333331481892892  0.2500001202376085  0.4166666662342661   F   F   F
  0.8333331481892892  0.7500001202376085  0.4166666662342661   F   F   F
  0.3324060143110430  0.0000688487559463  0.5831153614856516   T   T   T
  0.3323719095678181  0.5037971965642832  0.5831199918037315   T   T   T
  0.6675871119750724  0.0000698734130347  0.5831156666614508   T   T   T
  0.6676187563750605  0.5037962451853484  0.5831201989309373   T   T   T
  0.9999948882362548  0.0021688794361684  0.5831934538221872   T   T   T
  0.9999943721483389  0.5028387382967314  0.5831837440790943   T   T   T
  0.3339151270007794  0.1680925002403271  0.5282486544645454   T   T   T
  0.3335096058703213  0.6675676772850138  0.5281762643504947   T   T   T
  0.6660720917414852  0.1680926729791671  0.5282490815772833   T   T   T
  0.6664814812036036  0.6675669918631697  0.5281763494598745   T   T   T
  0.9999917439120737  0.1671088109281270  0.5279221955091317   T   T   T
  0.9999943725832386  0.6675289423988222  0.5281559269280273   T   T   T
  0.3333331481892897  0.3333334587597487  0.4722222226546229   F   F   F
  0.3333331481892897  0.8333334587597487  0.4722222226546229   F   F   F
  0.6666664815226231  0.3333334587597487  0.4722222226546229   F   F   F
  0.6666664815226231  0.8333334587597487  0.4722222226546229   F   F   F
  0.9999998148559561  0.3333334587597487  0.4722222226546229   F   F   F
  0.9999998148559563  0.8333334587597487  0.4722222226546229   F   F   F
  0.3333331481892892  0.0000001254264155  0.4166666670990671   F   F   F
  0.3333331481892892  0.5000001254264155  0.4166666670990673   F   F   F
  0.6666664815226225  0.0000001254264155  0.4166666670990671   F   F   F
  0.6666664815226224  0.5000001254264155  0.4166666670990673   F   F   F
  0.9999998148559557  0.0000001254264155  0.4166666670990671   F   F   F
  0.9999998148559557  0.5000001254264155  0.4166666670990673   F   F   F
  0.4999916412562286  0.2665109866982271  0.6361889381233720   T   T   T
  0.5000312952260662  0.2439424725252843  0.6634482040685814   T   T   T
