Ag Pd 
 1.0000000000000000
     8.4012246744318553    0.0000000000000000    0.0000000000000006
     0.0000000000000016    9.7556249397631500    0.0778334351619916
     0.0000000000000000    0.0000000000000000   41.2743430770740716
 Ag  Pd 
  24  24
Selective dynamics
Direct
  0.1666653704806685  0.2500281547444549  0.5852057017809593   T   T   T
  0.1666653864389410  0.7500355030589669  0.5852002008503783   T   T   T
  0.4999981303762339  0.2500281960741952  0.5852052217829845   T   T   T
  0.4999981146393537  0.7500355100010528  0.5851997190755232   T   T   T
  0.8333335852925517  0.2500281539567275  0.5852053094709734   T   T   T
  0.8333335591184211  0.7500354675780454  0.5851998094652368   T   T   T
  0.1666708912317993  0.4158109832750189  0.5279278732842372   T   T   T
  0.1666708899093574  0.9158085185539834  0.5279261030201930   T   T   T
  0.5000040809589430  0.4158110475215241  0.5279277998328789   T   T   T
  0.5000040643754240  0.9158085774576791  0.5279260232085479   T   T   T
  0.8333377920746956  0.4158110882223316  0.5279278113248976   T   T   T
  0.8333377767949764  0.9158086024943903  0.5279260369446177   T   T   T
  0.1666664815226225  0.0833334535709418  0.4722222217898217   F   F   F
  0.1666664815226226  0.5833334535709418  0.4722222217898217   F   F   F
  0.4999998148559556  0.0833334535709418  0.4722222217898217   F   F   F
  0.4999998148559556  0.5833334535709418  0.4722222217898217   F   F   F
  0.8333331481892892  0.0833334535709418  0.4722222217898217   F   F   F
  0.8333331481892892  0.5833334535709418  0.4722222217898217   F   F   F
  0.1666664815226225  0.2500001202376085  0.4166666662342661   F   F   F
  0.1666664815226226  0.7500001202376085  0.4166666662342661   F   F   F
  0.4999998148559556  0.2500001202376085  0.4166666662342661   F   F   F
  0.4999998148559556  0.7500001202376085  0.4166666662342661   F   F   F
  0.8333331481892892  0.2500001202376085  0.4166666662342661   F   F   F
  0.8333331481892892  0.7500001202376085  0.4166666662342661   F   F   F
  0.3333347420648727  0.0018341027550320  0.5829334994565883   T   T   T
  0.3333347906859399  0.5018402051599092  0.5829327622491602   T   T   T
  0.6666693366066796  0.0018341198437481  0.5829332202942845   T   T   T
  0.6666693784335898  0.5018402543744597  0.5829324919095004   T   T   T
  1.0000031851724971  0.0018341101122308  0.5829335707909643   T   T   T
  1.0000032122076885  0.5018401987357395  0.5829328384514809   T   T   T
  0.3333353464828814  0.1673709657130191  0.5278498188710522   T   T   T
  0.3333354200465832  0.6673761571101656  0.5278465217359557   T   T   T
  0.6666689309887781  0.1673710813980188  0.5278497796907546   T   T   T
  0.6666689568539536  0.6673762342861865  0.5278464678459436   T   T   T
  1.0000024220638495  0.1673710465687234  0.5278498418729128   T   T   T
  1.0000024877077553  0.6673762250416159  0.5278465340983051   T   T   T
  0.3333331481892897  0.3333334587597487  0.4722222226546229   F   F   F
  0.3333331481892897  0.8333334587597487  0.4722222226546229   F   F   F
  0.6666664815226231  0.3333334587597487  0.4722222226546229   F   F   F
  0.6666664815226231  0.8333334587597487  0.4722222226546229   F   F   F
  0.9999998148559561  0.3333334587597487  0.4722222226546229   F   F   F
  0.9999998148559563  0.8333334587597487  0.4722222226546229   F   F   F
  0.3333331481892892  0.0000001254264155  0.4166666670990671   F   F   F
  0.3333331481892892  0.5000001254264155  0.4166666670990673   F   F   F
  0.6666664815226225  0.0000001254264155  0.4166666670990671   F   F   F
  0.6666664815226224  0.5000001254264155  0.4166666670990673   F   F   F
  0.9999998148559557  0.0000001254264155  0.4166666670990671   F   F   F
  0.9999998148559557  0.5000001254264155  0.4166666670990673   F   F   F
