Ag 
 1.0000000000000000
     8.5983832630900725    0.0000000000000000    0.3096632092506426
     4.2936155075093092    7.4496349315025547    0.3096632092506426
     0.0000000000000000    0.0000000000000000   39.8433329235828140
 Ag 
  36
Selective dynamics
Direct
  0.1568135861219851  0.1568133288783221  0.5886730938384056   T   T   T
  0.1568184094013887  0.4901494718416868  0.5886723986986190   T   T   T
  0.1568126954262586  0.8234854863619121  0.5886734129519431   T   T   T
  0.4901496685596656  0.1568181962091083  0.5886724799492198   T   T   T
  0.4901482661205643  0.4901480345347646  0.5886732064542199   T   T   T
  0.4901457767539429  0.8234828057157371  0.5886739534943958   T   T   T
  0.8234852483843063  0.1568126948390902  0.5886734505281414   T   T   T
  0.8234825831598519  0.4901458011302324  0.5886739153972943   T   T   T
  0.8234841296586747  0.8234846056235999  0.5886735653446538   T   T   T
  0.2745487996889187  0.2745487124656341  0.5290690890615749   T   T   T
  0.2745485893272405  0.6078840646918011  0.5290688255912640   T   T   T
  0.2745482720794729  0.9412099571181008  0.5290688351127631   T   T   T
  0.6078840961324996  0.2745485210158290  0.5290688345869118   T   T   T
  0.6078804699871782  0.6078804739979239  0.5290689266089047   T   T   T
  0.6078850403392422  0.9412112889085107  0.5290688747829300   T   T   T
  0.9412099572061337  0.2745482026280571  0.5290688357290481   T   T   T
  0.9412112243742539  0.6078850721335142  0.5290688648414541   T   T   T
  0.9412141577758202  0.9412142628202093  0.5290687647168651   T   T   T
  0.0588233949072055  0.0588233949072054  0.4705882352941176   F   F   F
  0.0588233949072055  0.3921567282405387  0.4705882352941173   F   F   F
  0.0588233949072055  0.7254900615738720  0.4705882352941176   F   F   F
  0.3921567282405388  0.0588233949072054  0.4705882352941176   F   F   F
  0.3921567282405387  0.3921567282405387  0.4705882352941176   F   F   F
  0.3921567282405388  0.7254900615738720  0.4705882352941173   F   F   F
  0.7254900615738720  0.0588233949072054  0.4705882352941176   F   F   F
  0.7254900615738721  0.3921567282405387  0.4705882352941173   F   F   F
  0.7254900615738720  0.7254900615738720  0.4705882352941176   F   F   F
  0.1764704537307346  0.1764704537307344  0.4117647058823530   F   F   F
  0.1764704537307346  0.5098037870640678  0.4117647058823530   F   F   F
  0.1764704537307346  0.8431371203974013  0.4117647058823529   F   F   F
  0.5098037870640679  0.1764704537307344  0.4117647058823530   F   F   F
  0.5098037870640678  0.5098037870640678  0.4117647058823530   F   F   F
  0.5098037870640678  0.8431371203974013  0.4117647058823530   F   F   F
  0.8431371203974012  0.1764704537307344  0.4117647058823530   F   F   F
  0.8431371203974014  0.5098037870640678  0.4117647058823530   F   F   F
  0.8431371203974007  0.8431371203974013  0.4117647058823529   F   F   F
