Ag  C  O 
 1.0000000000000000
     8.5983832630900725    0.0000000000000000    0.3096632092506426
     4.2936155075093092    7.4496349315025547    0.3096632092506426
     0.0000000000000000    0.0000000000000000   39.8433329235828140
 Ag  C   O  
  36   1   1
Selective dynamics
Direct
  0.1567982711609189  0.1567977496317222  0.5892872877924235   T   T   T
  0.1548267972523327  0.4900524516998505  0.5887403233469712   T   T   T
  0.1547068527993906  0.8258211541057182  0.5887073927127588   T   T   T
  0.4900522363732896  0.1548263987601151  0.5887405597474382   T   T   T
  0.4900944674843452  0.4900952159086404  0.5898423793789928   T   T   T
  0.4900822124208272  0.8259414107479913  0.5886621913539037   T   T   T
  0.8258209423512575  0.1547061220799785  0.5887073905043757   T   T   T
  0.8259416246093337  0.4900817718115407  0.5886620274153513   T   T   T
  0.8235217479154018  0.8235213018130007  0.5889626091314044   T   T   T
  0.2744442359342086  0.2744439075569430  0.5293614637600771   T   T   T
  0.2759459063682521  0.6071019322995408  0.5297881600006387   T   T   T
  0.2744300379284791  0.9413952656715848  0.5293447460483381   T   T   T
  0.6071014812504584  0.2759459433591254  0.5297882446500193   T   T   T
  0.6071558635809559  0.6071561716954673  0.5297474758269590   T   T   T
  0.6083861033897701  0.9410751496281060  0.5289929496425747   T   T   T
  0.9413956107943935  0.2744294771672399  0.5293447711091717   T   T   T
  0.9410746118095314  0.6083866178956853  0.5289927917049091   T   T   T
  0.9410198023287357  0.9410190522395023  0.5289918663187583   T   T   T
  0.0588233949072055  0.0588233949072054  0.4705882352941176   F   F   F
  0.0588233949072055  0.3921567282405387  0.4705882352941173   F   F   F
  0.0588233949072055  0.7254900615738720  0.4705882352941176   F   F   F
  0.3921567282405388  0.0588233949072054  0.4705882352941176   F   F   F
  0.3921567282405387  0.3921567282405387  0.4705882352941176   F   F   F
  0.3921567282405388  0.7254900615738720  0.4705882352941173   F   F   F
  0.7254900615738720  0.0588233949072054  0.4705882352941176   F   F   F
  0.7254900615738721  0.3921567282405387  0.4705882352941173   F   F   F
  0.7254900615738720  0.7254900615738720  0.4705882352941176   F   F   F
  0.1764704537307346  0.1764704537307344  0.4117647058823530   F   F   F
  0.1764704537307346  0.5098037870640678  0.4117647058823530   F   F   F
  0.1764704537307346  0.8431371203974013  0.4117647058823529   F   F   F
  0.5098037870640679  0.1764704537307344  0.4117647058823530   F   F   F
  0.5098037870640678  0.5098037870640678  0.4117647058823530   F   F   F
  0.5098037870640678  0.8431371203974013  0.4117647058823530   F   F   F
  0.8431371203974012  0.1764704537307344  0.4117647058823530   F   F   F
  0.8431371203974014  0.5098037870640678  0.4117647058823530   F   F   F
  0.8431371203974007  0.8431371203974013  0.4117647058823529   F   F   F
  0.4872399543842890  0.4872400574801997  0.6434836404697560   T   T   T
  0.4875057389132108  0.4875059937014714  0.6721977257565769   T   T   T
