Ag Pd  C  O 
 1.0000000000000000
     8.3348369443761747    0.0000000000000000    0.0000000000000005
     4.1674184721880891    7.2181805302308319    0.0000000000000005
     0.0000000000000000    0.0000000000000000   47.6375610737127033
 Ag  Pd  C   O  
   9  27   1   1
Selective dynamics
Direct
  0.6666666666666667  0.6666666666666667  0.4761904572003339   F   F   F
  0.4444444444444448  0.4444444444444445  0.5238095048193816   F   F   F
  0.4444444444444446  1.1111111111111112  0.5238095048193816   F   F   F
  0.9981019584942555  0.6668902890137678  0.6221872864045878   T   T   T
  0.3360986608529088  0.6644041131753102  0.6225867719458726   T   T   T
  0.2228234160837971  0.2224935260126862  0.5717100838615355   T   T   T
  0.2248576185706218  0.8858647222203128  0.5724813877021877   T   T   T
  0.8890509662081910  0.2224481337764194  0.5716592922726360   T   T   T
  0.8900542790275898  0.8873494442604044  0.5723087822799735   T   T   T
  0.3333333924137755  0.3333333924137756  0.4761904825205235   F   F   F
  0.3333333924137756  1.0000000590804423  0.4761904825205235   F   F   F
  1.0000000590804421  0.3333333924137756  0.4761904825205235   F   F   F
  1.0000000590804421  1.0000000590804423  0.4761904825205235   F   F   F
  0.6666665485057828  0.3333333924137756  0.4761904825205235   F   F   F
  0.6666665485057829  1.0000000590804423  0.4761904825205235   F   F   F
  0.3333333924137759  0.6666665485057824  0.4761904825205235   F   F   F
  1.0000000590804428  0.6666665485057824  0.4761904825205235   F   F   F
  0.5554183155312321  0.5554125530857368  0.5717438111324160   T   T   T
  0.1111111701915532  0.1111111701915532  0.5238095301395711   F   F   F
  0.1111111701915533  0.7777778368582199  0.5238095301395711   F   F   F
  0.7777778368582201  0.1111111701915532  0.5238095301395711   F   F   F
  0.7777778368582201  0.7777778368582199  0.5238095301395711   F   F   F
  0.3370399256196498  0.3291825936888440  0.6192878772900451   T   T   T
  0.3357300134942965  1.0035436599006231  0.6200534083483616   T   T   T
  1.0000494076146893  0.3335383149144426  0.6198633822781803   T   T   T
  0.9972386338515522  1.0073237397455328  0.6207467905917688   T   T   T
  0.2234995111211772  0.5549363761806123  0.5721361983066461   T   T   T
  0.8893748083499587  0.5555564606488257  0.5711355994744309   T   T   T
  0.4444443262835602  0.7777778368582199  0.5238095301395711   F   F   F
  0.6694818110865574  0.3318771056986967  0.6194423084667112   T   T   T
  0.6641328187909997  1.0024752909889745  0.6197380076934011   T   T   T
  0.5567175887476142  0.2224110275613239  0.5718722435737785   T   T   T
  0.5576798477062278  0.8871574715840680  0.5716849577196849   T   T   T
  0.1111111701915534  0.4444443262835603  0.5238095301395711   F   F   F
  0.7777778368582202  0.4444443262835603  0.5238095301395711   F   F   F
  0.6699234104355689  0.6667958071266337  0.6188387287881481   T   T   T
  0.3274158264240557  0.6855011926498280  0.6667630256409073   T   T   T
  0.3375884119400698  0.6618747574014946  0.6906247197014953   T   T   T
