Ag Pd 
 1.0000000000000000
     8.4012246744318553    0.0000000000000000    0.0000000000000006
     0.0000000000000016    9.7556249397631500    0.0778334351619916
     0.0000000000000000    0.0000000000000000   41.2743430770740716
 Ag  Pd 
  24  24
Selective dynamics
Direct
  0.1666657290002033  0.2499945123334417  0.5852086890371432   T   T   T
  0.1666657528305780  0.7500019691943769  0.5852035113319122   T   T   T
  0.4999990285928936  0.2499945300577159  0.5852086845131224   T   T   T
  0.4999990162963586  0.7500019504900547  0.5852035061848998   T   T   T
  0.8333323205086104  0.2499944952805878  0.5852086323057631   T   T   T
  0.8333322980366134  0.7500019130194013  0.5852034550310097   T   T   T
  0.1666707974075697  0.4158460475876036  0.5279417898985078   T   T   T
  0.1666707935964757  0.9158426826909111  0.5279399088266719   T   T   T
  0.5000040693316800  0.4158460812578469  0.5279417863414378   T   T   T
  0.5000040752794844  0.9158427284573347  0.5279399005712863   T   T   T
  0.8333374878443232  0.4158461301017199  0.5279417675931064   T   T   T
  0.8333374687888845  0.9158427461756992  0.5279398866201188   T   T   T
  0.1666664815226225  0.0833334535709418  0.4722222217898217   F   F   F
  0.1666664815226226  0.5833334535709418  0.4722222217898217   F   F   F
  0.4999998148559556  0.0833334535709418  0.4722222217898217   F   F   F
  0.4999998148559556  0.5833334535709418  0.4722222217898217   F   F   F
  0.8333331481892892  0.0833334535709418  0.4722222217898217   F   F   F
  0.8333331481892892  0.5833334535709418  0.4722222217898217   F   F   F
  0.1666664815226225  0.2500001202376085  0.4166666662342661   F   F   F
  0.1666664815226226  0.7500001202376085  0.4166666662342661   F   F   F
  0.4999998148559556  0.2500001202376085  0.4166666662342661   F   F   F
  0.4999998148559556  0.7500001202376085  0.4166666662342661   F   F   F
  0.8333331481892892  0.2500001202376085  0.4166666662342661   F   F   F
  0.8333331481892892  0.7500001202376085  0.4166666662342661   F   F   F
  0.3333357965390912  0.0019012980634165  0.5829115267797702   T   T   T
  0.3333358429115821  0.5019094153934953  0.5829104421227559   T   T   T
  0.6666690300809743  0.0019012945363963  0.5829114987531649   T   T   T
  0.6666690676544895  0.5019094490980298  0.5829104232599994   T   T   T
  1.0000024454108036  0.0019013111909495  0.5829114905777716   T   T   T
  1.0000024812943589  0.5019094166492797  0.5829104099829426   T   T   T
  0.3333355151592619  0.1672571611607995  0.5278679834410452   T   T   T
  0.3333355918178639  0.6672624617511539  0.5278647646058866   T   T   T
  0.6666688622200305  0.1672572651469712  0.5278679786851136   T   T   T
  0.6666688845317356  0.6672625504763466  0.5278647437187362   T   T   T
  1.0000022568234990  0.1672572172264913  0.5278679808910218   T   T   T
  1.0000023161121889  0.6672625209885401  0.5278647505171717   T   T   T
  0.3333331481892897  0.3333334587597487  0.4722222226546229   F   F   F
  0.3333331481892897  0.8333334587597487  0.4722222226546229   F   F   F
  0.6666664815226231  0.3333334587597487  0.4722222226546229   F   F   F
  0.6666664815226231  0.8333334587597487  0.4722222226546229   F   F   F
  0.9999998148559561  0.3333334587597487  0.4722222226546229   F   F   F
  0.9999998148559563  0.8333334587597487  0.4722222226546229   F   F   F
  0.3333331481892892  0.0000001254264155  0.4166666670990671   F   F   F
  0.3333331481892892  0.5000001254264155  0.4166666670990673   F   F   F
  0.6666664815226225  0.0000001254264155  0.4166666670990671   F   F   F
  0.6666664815226224  0.5000001254264155  0.4166666670990673   F   F   F
  0.9999998148559557  0.0000001254264155  0.4166666670990671   F   F   F
  0.9999998148559557  0.5000001254264155  0.4166666670990673   F   F   F
