Ag  H Pd  O 
 1.0000000000000000
     8.3348369443761747    0.0000000000000000    0.0000000000000005
     4.1674184721880891    7.2181805302308319    0.0000000000000005
     0.0000000000000000    0.0000000000000000   47.6375610737127033
 Ag  H   Pd  O  
   9   1  27   1
Selective dynamics
Direct
  0.6666666666666667  0.6666666666666667  0.4761904572003339   F   F   F
  0.4444444444444448  0.4444444444444445  0.5238095048193816   F   F   F
  0.4444444444444446  1.1111111111111112  0.5238095048193816   F   F   F
  0.9983127425591031  0.6672670836228456  0.6219259317934530   T   T   T
  0.3342319945165951  0.6662934653653112  0.6232749222189481   T   T   T
  0.2231175312694441  0.2221245128617963  0.5716923588514419   T   T   T
  0.2254251073499348  0.8852144950005152  0.5726286548007286   T   T   T
  0.8892398031602364  0.2226826508391458  0.5716523346504303   T   T   T
  0.8903614955275848  0.8874762215327372  0.5722233752900925   T   T   T
  0.4331115262124073  0.6724850782737013  0.6752366913575377   T   T   T
  0.3333333924137755  0.3333333924137756  0.4761904825205235   F   F   F
  0.3333333924137756  1.0000000590804423  0.4761904825205235   F   F   F
  1.0000000590804421  0.3333333924137756  0.4761904825205235   F   F   F
  1.0000000590804421  1.0000000590804423  0.4761904825205235   F   F   F
  0.6666665485057828  0.3333333924137756  0.4761904825205235   F   F   F
  0.6666665485057829  1.0000000590804423  0.4761904825205235   F   F   F
  0.3333333924137759  0.6666665485057824  0.4761904825205235   F   F   F
  1.0000000590804428  0.6666665485057824  0.4761904825205235   F   F   F
  0.5552070975736149  0.5554884427086780  0.5718172768913053   T   T   T
  0.1111111701915532  0.1111111701915532  0.5238095301395711   F   F   F
  0.1111111701915533  0.7777778368582199  0.5238095301395711   F   F   F
  0.7777778368582201  0.1111111701915532  0.5238095301395711   F   F   F
  0.7777778368582201  0.7777778368582199  0.5238095301395711   F   F   F
  0.3373225892969565  0.3293531564509654  0.6191154656416030   T   T   T
  0.3361218379326016  1.0030783313568636  0.6200751713907792   T   T   T
  1.0004482451826029  0.3339411445185851  0.6199076337616148   T   T   T
  0.9971014579514298  1.0080167460709126  0.6206021639117423   T   T   T
  0.2239675898306948  0.5546647330977003  0.5721097820297160   T   T   T
  0.8896198237495547  0.5556376852681900  0.5711527208161891   T   T   T
  0.4444443262835602  0.7777778368582199  0.5238095301395711   F   F   F
  0.6690452937111200  0.3330810794166879  0.6194371135401483   T   T   T
  0.6645910685572778  1.0025256308690347  0.6197174216650705   T   T   T
  0.5571074979362268  0.2223373329482931  0.5718010177475569   T   T   T
  0.5579262842993701  0.8872694799092801  0.5716535663898936   T   T   T
  0.1111111701915534  0.4444443262835603  0.5238095301395711   F   F   F
  0.7777778368582202  0.4444443262835603  0.5238095301395711   F   F   F
  0.6691753853763011  0.6668759253106922  0.6187580525266477   T   T   T
  0.3171420148042831  0.6768412272278104  0.6699277053096965   T   T   T
