 H Pd  O 
 1.0000000000000000
     8.2582115393440390    0.0000000000000000    0.0000000000000006
    -4.1291057696720213    7.1518209828977302    0.0000000000000006
     0.0000000000000000    0.0000000000000000   40.4568089187138042
 H   Pd  O  
   1  36   1
Selective dynamics
Direct
  0.7576504427003995  0.6661948089834594  0.6497007659928402   T   T   T
  0.0000003242213467  0.0000001621106736  0.4166666666666669   F   F   F
  0.0000003242213467  0.3333334954440070  0.4166666666666669   F   F   F
  0.0000003242213466  0.6666668287773403  0.4166666666666669   F   F   F
  0.3333336575546800  0.0000001621106736  0.4166666666666669   F   F   F
  0.3333336575546800  0.3333334954440070  0.4166666666666669   F   F   F
  0.3333336575546799  0.6666668287773403  0.4166666666666669   F   F   F
  0.6666669908880133  0.0000001621106736  0.4166666666666669   F   F   F
  0.6666669908880132  0.3333334954440070  0.4166666666666669   F   F   F
  0.6666669908880132  0.6666668287773403  0.4166666666666669   F   F   F
  0.1111114353324573  0.2222223843328956  0.4722222222222223   F   F   F
  0.1111114353324573  0.5555557176662289  0.4722222222222223   F   F   F
  0.1111114353324574  0.8888890509995623  0.4722222222222223   F   F   F
  0.4444447686657906  0.2222223843328956  0.4722222222222223   F   F   F
  0.4444447686657906  0.5555557176662289  0.4722222222222223   F   F   F
  0.4444447686657906  0.8888890509995623  0.4722222222222223   F   F   F
  0.7777781019991239  0.2222223843328956  0.4722222222222223   F   F   F
  0.7777781019991239  0.5555557176662289  0.4722222222222223   F   F   F
  0.7777781019991239  0.8888890509995623  0.4722222222222223   F   F   F
  0.2221995377007074  0.1107966424864049  0.5274183612885990   T   T   T
  0.2220305222851002  0.4441811633207221  0.5274329514693025   T   T   T
  0.2220211183313601  0.7778126361725046  0.5274369516420422   T   T   T
  0.5553462500188936  0.1110248290190205  0.5274274899129856   T   T   T
  0.5565765801872962  0.4461136375229153  0.5281177029243131   T   T   T
  0.5564581860753223  0.7768005637375673  0.5280443645880002   T   T   T
  0.8890604577291742  0.1111346740601461  0.5274940859839247   T   T   T
  0.8889790517782407  0.4443850215446520  0.5275922657469090   T   T   T
  0.8873658530458687  0.7767965973345461  0.5281725937820936   T   T   T
  0.0014706093619111  0.0010122460067708  0.5835568604471766   T   T   T
  0.0001010200414696  0.3331289164074064  0.5837082717486445   T   T   T
  0.0017103982993277  0.6665740515717303  0.5838101391102665   T   T   T
  0.3333816424540871 -0.0002679247782947  0.5837981660062359   T   T   T
  0.3321766236562967  0.3318767841202626  0.5833042081848382   T   T   T
  0.3321153971685203  0.6664692314179893  0.5832100363693904   T   T   T
  0.6666815591370170  0.0009618453293087  0.5832951923120916   T   T   T
  0.6667259353069299  0.3317123975909571  0.5835799694614598   T   T   T
  0.6685329917258809  0.6662298997236974  0.5864102184223046   T   T   T
  0.6531449283452618  0.6677166181199500  0.6380342951845019   T   T   T
