Pd  C  O 
 1.0000000000000000
     8.2582115393440390    0.0000000000000000    0.0000000000000006
    -4.1291057696720213    7.1518209828977302    0.0000000000000006
     0.0000000000000000    0.0000000000000000   40.4568089187138042
 Pd  C   O  
  36   1   1
Selective dynamics
Direct
  0.0000003242213467  0.0000001621106736  0.4166666666666669   F   F   F
  0.0000003242213467  0.3333334954440070  0.4166666666666669   F   F   F
  0.0000003242213466  0.6666668287773403  0.4166666666666669   F   F   F
  0.3333336575546800  0.0000001621106736  0.4166666666666669   F   F   F
  0.3333336575546800  0.3333334954440070  0.4166666666666669   F   F   F
  0.3333336575546799  0.6666668287773403  0.4166666666666669   F   F   F
  0.6666669908880133  0.0000001621106736  0.4166666666666669   F   F   F
  0.6666669908880132  0.3333334954440070  0.4166666666666669   F   F   F
  0.6666669908880132  0.6666668287773403  0.4166666666666669   F   F   F
  0.1111114353324573  0.2222223843328956  0.4722222222222223   F   F   F
  0.1111114353324573  0.5555557176662289  0.4722222222222223   F   F   F
  0.1111114353324574  0.8888890509995623  0.4722222222222223   F   F   F
  0.4444447686657906  0.2222223843328956  0.4722222222222223   F   F   F
  0.4444447686657906  0.5555557176662289  0.4722222222222223   F   F   F
  0.4444447686657906  0.8888890509995623  0.4722222222222223   F   F   F
  0.7777781019991239  0.2222223843328956  0.4722222222222223   F   F   F
  0.7777781019991239  0.5555557176662289  0.4722222222222223   F   F   F
  0.7777781019991239  0.8888890509995623  0.4722222222222223   F   F   F
  0.2221900932403684  0.1111356921223446  0.5276741051065929   T   T   T
  0.2222258292943240  0.4444454760893516  0.5277312057789961   T   T   T
  0.2221897813562398  0.7777192081720512  0.5276738458822954   T   T   T
  0.5556064548804999  0.1111344872947426  0.5276737843398897   T   T   T
  0.5563835388730625  0.4461117227084632  0.5283129230661279   T   T   T
  0.5563879123875121  0.7769370725876805  0.5283124325103741   T   T   T
  0.8888798137395862  0.1110973076459353  0.5277311840790559   T   T   T
  0.8888777694366992  0.4444453208264072  0.5277309988921446   T   T   T
  0.8872129540553587  0.7769390645183898  0.5283123922686692   T   T   T
  0.0024557439859674  0.0023321778075543  0.5840134984083184   T   T   T
 -0.0000008139574712  0.3333306653967107  0.5839400455140146   T   T   T
  0.0024483381516885  0.6667864106311203  0.5840126869088953   T   T   T
  0.3333311263141445 -0.0000002475471681  0.5841924670165936   T   T   T
  0.3309927752264176  0.3308687288587541  0.5840142934917850   T   T   T
  0.3309827109317488  0.6667891821651174  0.5840130551049565   T   T   T
  0.6665377310616579  0.0023238452275666  0.5840127354080847   T   T   T
  0.6665420311549092  0.3308593993758160  0.5840133246287018   T   T   T
  0.6666463632113523  0.6666464717979227  0.5864987770017871   T   T   T
  0.6666860121553313  0.6666861691976737  0.6320604204503579   T   T   T
  0.6667293783488031  0.6667284861044889  0.6608383995581344   T   T   T
