Pd  C  O 
 1.0000000000000000
     8.2582115393440390    0.0000000000000000    0.0000000000000006
    -4.1291057696720213    7.1518209828977302    0.0000000000000006
     0.0000000000000000    0.0000000000000000   40.4568089187138042
 Pd  C   O  
  36   1   1
Selective dynamics
Direct
  0.0000003242213467  0.0000001621106736  0.4166666666666669   F   F   F
  0.0000003242213467  0.3333334954440070  0.4166666666666669   F   F   F
  0.0000003242213466  0.6666668287773403  0.4166666666666669   F   F   F
  0.3333336575546800  0.0000001621106736  0.4166666666666669   F   F   F
  0.3333336575546800  0.3333334954440070  0.4166666666666669   F   F   F
  0.3333336575546799  0.6666668287773403  0.4166666666666669   F   F   F
  0.6666669908880133  0.0000001621106736  0.4166666666666669   F   F   F
  0.6666669908880132  0.3333334954440070  0.4166666666666669   F   F   F
  0.6666669908880132  0.6666668287773403  0.4166666666666669   F   F   F
  0.1111114353324573  0.2222223843328956  0.4722222222222223   F   F   F
  0.1111114353324573  0.5555557176662289  0.4722222222222223   F   F   F
  0.1111114353324574  0.8888890509995623  0.4722222222222223   F   F   F
  0.4444447686657906  0.2222223843328956  0.4722222222222223   F   F   F
  0.4444447686657906  0.5555557176662289  0.4722222222222223   F   F   F
  0.4444447686657906  0.8888890509995623  0.4722222222222223   F   F   F
  0.7777781019991239  0.2222223843328956  0.4722222222222223   F   F   F
  0.7777781019991239  0.5555557176662289  0.4722222222222223   F   F   F
  0.7777781019991239  0.8888890509995623  0.4722222222222223   F   F   F
  0.2221909289363685  0.1111350880643037  0.5276729286173110   T   T   T
  0.2222303783787134  0.4444478235533464  0.5277312129813958   T   T   T
  0.2221905451140180  0.7777206462827202  0.5276726822351306   T   T   T
  0.5556051878610314  0.1111339326732368  0.5276726151612171   T   T   T
  0.5563898388960541  0.4461244716852263  0.5283172022413352   T   T   T
  0.5563944328266393  0.7769309299615500  0.5283167154069636   T   T   T
  0.8888777641436769  0.1110929590204280  0.5277312224214059   T   T   T
  0.8888756718216334  0.4444476722949849  0.5277310094626348   T   T   T
  0.8872005441081390  0.7769327976614585  0.5283166794651467   T   T   T
  0.0024611924987845  0.0023476654719002  0.5840047146604632   T   T   T
 -0.0000004151646006  0.3333310605689723  0.5839288536047965   T   T   T
  0.0024540827633141  0.6667766854389544  0.5840039077866244   T   T   T
  0.3333314726416985  0.0000002151392313  0.5841816870591920   T   T   T
  0.3309781730852094  0.3308642309219480  0.5840054734037842   T   T   T
  0.3309682436929784  0.6667796078353198  0.5840042025617390   T   T   T
  0.6665480252682139  0.0023395733105290  0.5840039514443826   T   T   T
  0.6665523703231303  0.3308548501854989  0.5840044671838125   T   T   T
  0.6666470155922012  0.6666471526466198  0.5864970515421492   T   T   T
  0.6666837284783859  0.6666839604182088  0.6320884217883689   T   T   T
  0.6667257830265431  0.6667249216299217  0.6608725714868072   T   T   T
