Ag 
 1.0000000000000000
     8.5983832630900725    0.0000000000000000    0.3096632092506426
     4.2936155075093092    7.4496349315025547    0.3096632092506426
     0.0000000000000000    0.0000000000000000   39.8433329235828140
 Ag 
  36
Selective dynamics
Direct
  0.1568127055177202  0.1568128093492699  0.5886857297088115   T   T   T
  0.1568151521270793  0.4901448808981099  0.5886837134270642   T   T   T
  0.1568123439654374  0.8234863664228194  0.5886842337502546   T   T   T
  0.4901449338096021  0.1568151783362766  0.5886837091693949   T   T   T
  0.4901475861100124  0.4901474986643603  0.5886837037845027   T   T   T
  0.4901428534761610  0.8234840103444481  0.5886857674750378   T   T   T
  0.8234863211998017  0.1568124362838679  0.5886842620735044   T   T   T
  0.8234840172859151  0.4901427532501291  0.5886857882171335   T   T   T
  0.8234820267047478  0.8234820358278933  0.5886845918979354   T   T   T
  0.2745408685650006  0.2745408457526219  0.5291373863609075   T   T   T
  0.2745408171205061  0.6078765090451950  0.5291369373394814   T   T   T
  0.2745407061377543  0.9412026221172507  0.5291371100001818   T   T   T
  0.6078765356375949  0.2745407863350475  0.5291369443663227   T   T   T
  0.6078732423890369  0.6078732169661680  0.5291371147419386   T   T   T
  0.6078772659945433  0.9412033353082609  0.5291372140050413   T   T   T
  0.9412026261743897  0.2745407043907545  0.5291371106879629   T   T   T
  0.9412033140515722  0.6078772576990119  0.5291372176760241   T   T   T
  0.9412066206095064  0.9412066824548518  0.5291369155905691   T   T   T
  0.0588233949072055  0.0588233949072054  0.4705882352941176   F   F   F
  0.0588233949072055  0.3921567282405387  0.4705882352941173   F   F   F
  0.0588233949072055  0.7254900615738720  0.4705882352941176   F   F   F
  0.3921567282405388  0.0588233949072054  0.4705882352941176   F   F   F
  0.3921567282405387  0.3921567282405387  0.4705882352941176   F   F   F
  0.3921567282405388  0.7254900615738720  0.4705882352941173   F   F   F
  0.7254900615738720  0.0588233949072054  0.4705882352941176   F   F   F
  0.7254900615738721  0.3921567282405387  0.4705882352941173   F   F   F
  0.7254900615738720  0.7254900615738720  0.4705882352941176   F   F   F
  0.1764704537307346  0.1764704537307344  0.4117647058823530   F   F   F
  0.1764704537307346  0.5098037870640678  0.4117647058823530   F   F   F
  0.1764704537307346  0.8431371203974013  0.4117647058823529   F   F   F
  0.5098037870640679  0.1764704537307344  0.4117647058823530   F   F   F
  0.5098037870640678  0.5098037870640678  0.4117647058823530   F   F   F
  0.5098037870640678  0.8431371203974013  0.4117647058823530   F   F   F
  0.8431371203974012  0.1764704537307344  0.4117647058823530   F   F   F
  0.8431371203974014  0.5098037870640678  0.4117647058823530   F   F   F
  0.8431371203974007  0.8431371203974013  0.4117647058823529   F   F   F
