Ag 
 1.0000000000000000
     8.5983832630900725    0.0000000000000000    0.3096632092506426
     4.2936155075093092    7.4496349315025547    0.3096632092506426
     0.0000000000000000    0.0000000000000000   39.8433329235828140
 Ag 
  36
Selective dynamics
Direct
  0.1568142351590511  0.1568143480739286  0.5886707751729539   T   T   T
  0.1568161945675337  0.4901462572416110  0.5886686414049789   T   T   T
  0.1568140166971346  0.8234884277506321  0.5886691987080638   T   T   T
  0.4901463127146765  0.1568162226315435  0.5886686377756960   T   T   T
  0.4901494741141222  0.4901493736235437  0.5886686552457503   T   T   T
  0.4901445049929601  0.8234856989258093  0.5886707363295263   T   T   T
  0.8234883797419122  0.1568141194408194  0.5886692289037176   T   T   T
  0.8234857114234290  0.4901443973978324  0.5886707576200995   T   T   T
  0.8234833085516823  0.8234833132611133  0.5886695472315158   T   T   T
  0.2745411796104087  0.2745411553143688  0.5291343117830880   T   T   T
  0.2745411463791435  0.6078768374121484  0.5291338361536604   T   T   T
  0.2745410063536519  0.9412030147082329  0.5291340310312038   T   T   T
  0.6078768625843816  0.2745411154564197  0.5291338437274721   T   T   T
  0.6078735784908987  0.6078735510854253  0.5291340272114041   T   T   T
  0.6078775339594515  0.9412037028272475  0.5291341406065893   T   T   T
  0.9412030189031392  0.2745410076360512  0.5291340316343034   T   T   T
  0.9412036811742724  0.6078775253019767  0.5291341445847285   T   T   T
  0.9412069920090623  0.9412070554404802  0.5291338347964114   T   T   T
  0.0588233949072055  0.0588233949072054  0.4705882352941176   F   F   F
  0.0588233949072055  0.3921567282405387  0.4705882352941173   F   F   F
  0.0588233949072055  0.7254900615738720  0.4705882352941176   F   F   F
  0.3921567282405388  0.0588233949072054  0.4705882352941176   F   F   F
  0.3921567282405387  0.3921567282405387  0.4705882352941176   F   F   F
  0.3921567282405388  0.7254900615738720  0.4705882352941173   F   F   F
  0.7254900615738720  0.0588233949072054  0.4705882352941176   F   F   F
  0.7254900615738721  0.3921567282405387  0.4705882352941173   F   F   F
  0.7254900615738720  0.7254900615738720  0.4705882352941176   F   F   F
  0.1764704537307346  0.1764704537307344  0.4117647058823530   F   F   F
  0.1764704537307346  0.5098037870640678  0.4117647058823530   F   F   F
  0.1764704537307346  0.8431371203974013  0.4117647058823529   F   F   F
  0.5098037870640679  0.1764704537307344  0.4117647058823530   F   F   F
  0.5098037870640678  0.5098037870640678  0.4117647058823530   F   F   F
  0.5098037870640678  0.8431371203974013  0.4117647058823530   F   F   F
  0.8431371203974012  0.1764704537307344  0.4117647058823530   F   F   F
  0.8431371203974014  0.5098037870640678  0.4117647058823530   F   F   F
  0.8431371203974007  0.8431371203974013  0.4117647058823529   F   F   F
