Ag Pd  C  O 
 1.0000000000000000
     8.5013114179517117    0.0000000000000000    0.0000000000000005
     4.2506557089758541    7.3623516534288900    0.0000000000000005
     0.0000000000000000    0.0000000000000000   48.5890419431158733
 Ag  Pd  C   O  
  26  10   1   1
Selective dynamics
Direct
  0.6666666666666671  0.6666666666666666  0.4761904911784334   F   F   F
  0.3333332867041333  0.3333332867041335  0.4761904711944905   F   F   F
  0.3333332867041333  0.9999999533708002  0.4761904711944905   F   F   F
  0.9999999533707997  0.3333332867041335  0.4761904711944905   F   F   F
  0.9999999533707999  0.9999999533708002  0.4761904711944905   F   F   F
  0.6666667599250664  0.3333332867041335  0.4761904711944905   F   F   F
  0.6666667599250664  0.9999999533708002  0.4761904711944905   F   F   F
  0.4444444444444445  0.4444444444444445  0.5238095387974809   F   F   F
  0.6649872791047136  0.6715862871368105  0.6206178950501119   T   T   T
  0.2240954540785862  0.2213770317496572  0.5711360730248792   T   T   T
  0.2221101527213424  0.8905563111544790  0.5714886660630623   T   T   T
  0.8876008253643105  0.2219534614215322  0.5710768878916549   T   T   T
  0.8854714062181696  0.8917912320510782  0.5713516508919431   T   T   T
  0.5572088974883719  0.5556107639756647  0.5716622352138891   T   T   T
  0.1111110644819112  0.7777777311485777  0.5238095188135381   F   F   F
  0.7777777311485781  0.7777777311485777  0.5238095188135381   F   F   F
  0.3316224782990291  0.3376324626404164  0.6202069895829068   T   T   T
  0.3300508960300647  1.0018605819159510  0.6200322725761197   T   T   T
  1.0007826296032043  0.3347119148342669  0.6204401166796701   T   T   T
  1.0013049278840063  0.9975691190421291  0.6214152408452911   T   T   T
  0.2231432527517177  0.5531854887428129  0.5711744808097722   T   T   T
  0.8873449325747159  0.5557441508402925  0.5714055059382949   T   T   T
  0.4444445377028442  0.1111110644819113  0.5238095188135381   F   F   F
  0.4444445377028442  0.7777777311485780  0.5238095188135381   F   F   F
  0.6648079499935911  0.3333247229953998  0.6198084756172361   T   T   T
  0.6672704458686041  1.0021904224074107  0.6195342105737963   T   T   T
  0.3333332867041338  0.6666667599250664  0.4761904711944905   F   F   F
  0.9999999533708005  0.6666667599250664  0.4761904711944905   F   F   F
  0.5559525756245716  0.2212786977657008  0.5714846890024009   T   T   T
  0.5557401453009227  0.8881264262849808  0.5720698449300037   T   T   T
  0.1111110644819112  0.4444445377028443  0.5238095188135381   F   F   F
  0.1111110644819112  1.1111112043695111  0.5238095188135381   F   F   F
  0.7777777311485784  0.4444445377028443  0.5238095188135381   F   F   F
  0.7777777311485777  1.1111112043695111  0.5238095188135381   F   F   F
  0.3286365091201757  0.6684259154842661  0.6180622007070886   T   T   T
  1.0024865686125437  0.6677257752867044  0.6179728819593260   T   T   T
  0.6619036371366648  0.6630872395230207  0.6638076284636943   T   T   T
  0.6695684765237009  0.6656189858236966  0.6874728402603333   T   T   T
