Ag Pd  C  O 
 1.0000000000000000
     8.5013114179517117    0.0000000000000000    0.0000000000000005
     4.2506557089758541    7.3623516534288900    0.0000000000000005
     0.0000000000000000    0.0000000000000000   48.5890419431158733
 Ag  Pd  C   O  
  26  10   1   1
Selective dynamics
Direct
  0.6666666666666671  0.6666666666666666  0.4761904911784334   F   F   F
  0.3333332867041333  0.3333332867041335  0.4761904711944905   F   F   F
  0.3333332867041333  0.9999999533708002  0.4761904711944905   F   F   F
  0.9999999533707997  0.3333332867041335  0.4761904711944905   F   F   F
  0.9999999533707999  0.9999999533708002  0.4761904711944905   F   F   F
  0.6666667599250664  0.3333332867041335  0.4761904711944905   F   F   F
  0.6666667599250664  0.9999999533708002  0.4761904711944905   F   F   F
  0.4444444444444445  0.4444444444444445  0.5238095387974809   F   F   F
  0.6648492241496645  0.6715395096044575  0.6205368843723633   T   T   T
  0.2241118773890826  0.2213266525488708  0.5712019040303020   T   T   T
  0.2222458851698640  0.8902987004294879  0.5715131125540682   T   T   T
  0.8875819506179946  0.2218974074683070  0.5711228871520714   T   T   T
  0.8855359531574953  0.8915820226253454  0.5713596995729437   T   T   T
  0.5570439752103185  0.5557892616771853  0.5716221809187297   T   T   T
  0.1111110644819112  0.7777777311485777  0.5238095188135381   F   F   F
  0.7777777311485781  0.7777777311485777  0.5238095188135381   F   F   F
  0.3317869944867218  0.3375957551099581  0.6201357865929813   T   T   T
  0.3302705778932337  1.0015665537406897  0.6199846824390346   T   T   T
  1.0005201529734908  0.3347726344889906  0.6203960575566463   T   T   T
  1.0013909290056153  0.9974775214996453  0.6214118298426656   T   T   T
  0.2231044093431732  0.5532460258756058  0.5712177948611284   T   T   T
  0.8872771013136532  0.5559521397056711  0.5713830051998254   T   T   T
  0.4444445377028442  0.1111110644819113  0.5238095188135381   F   F   F
  0.4444445377028442  0.7777777311485780  0.5238095188135381   F   F   F
  0.6648833132584661  0.3334503110616519  0.6197717057247023   T   T   T
  0.6672974051903586  1.0020280910117179  0.6194792219137166   T   T   T
  0.3333332867041338  0.6666667599250664  0.4761904711944905   F   F   F
  0.9999999533708005  0.6666667599250664  0.4761904711944905   F   F   F
  0.5559996684739377  0.2212924903612929  0.5715509006222478   T   T   T
  0.5558241270564183  0.8879744884900804  0.5720502113668079   T   T   T
  0.1111110644819112  0.4444445377028443  0.5238095188135381   F   F   F
  0.1111110644819112  1.1111112043695111  0.5238095188135381   F   F   F
  0.7777777311485783  0.4444445377028443  0.5238095188135381   F   F   F
  0.7777777311485777  1.1111112043695111  0.5238095188135381   F   F   F
  0.3287150677762162  0.6683492029432107  0.6179155981428394   T   T   T
  1.0025285633115208  0.6676898485238174  0.6178236124081886   T   T   T
  0.6623693882099627  0.6630651720100930  0.6638968308818982   T   T   T
  0.6693801247414199  0.6658085596633713  0.6874421752990671   T   T   T
