Ag Pd  C  O 
 1.0000000000000000
     8.3348369443761747    0.0000000000000000    0.0000000000000005
     4.1674184721880891    7.2181805302308319    0.0000000000000005
     0.0000000000000000    0.0000000000000000   47.6375610737127033
 Ag  Pd  C   O  
   9  27   1   1
Selective dynamics
Direct
  0.6666666666666667  0.6666666666666667  0.4761904572003339   F   F   F
  0.4444444444444448  0.4444444444444445  0.5238095048193816   F   F   F
  0.4444444444444446  1.1111111111111112  0.5238095048193816   F   F   F
  0.9981261761383595  0.6668768567415381  0.6221985893943631   T   T   T
  0.3360234675835418  0.6644715076842368  0.6225722623744834   T   T   T
  0.2228219246713535  0.2224771311625673  0.5717144476605056   T   T   T
  0.2248154168673208  0.8859058641432500  0.5724863395600298   T   T   T
  0.8890834358265826  0.2224210867171363  0.5716673484584257   T   T   T
  0.8900662383486416  0.8873592298555208  0.5723182184159677   T   T   T
  0.3333333924137755  0.3333333924137756  0.4761904825205235   F   F   F
  0.3333333924137756  1.0000000590804423  0.4761904825205235   F   F   F
  1.0000000590804421  0.3333333924137756  0.4761904825205235   F   F   F
  1.0000000590804421  1.0000000590804423  0.4761904825205235   F   F   F
  0.6666665485057828  0.3333333924137756  0.4761904825205235   F   F   F
  0.6666665485057829  1.0000000590804423  0.4761904825205235   F   F   F
  0.3333333924137759  0.6666665485057824  0.4761904825205235   F   F   F
  1.0000000590804428  0.6666665485057824  0.4761904825205235   F   F   F
  0.5554410603263431  0.5553393898376199  0.5717424350847136   T   T   T
  0.1111111701915532  0.1111111701915532  0.5238095301395711   F   F   F
  0.1111111701915533  0.7777778368582199  0.5238095301395711   F   F   F
  0.7777778368582201  0.1111111701915532  0.5238095301395711   F   F   F
  0.7777778368582201  0.7777778368582199  0.5238095301395711   F   F   F
  0.3370663195034373  0.3292154268168526  0.6192832783075063   T   T   T
  0.3358049896613085  1.0035141396842162  0.6200385997853690   T   T   T
  0.9999746952692670  0.3335869769850343  0.6198581679567589   T   T   T
  0.9972475668623628  1.0073253739853640  0.6207316906902544   T   T   T
  0.2235558629171739  0.5548401183843323  0.5721325871712299   T   T   T
  0.8893596402835074  0.5555339908398318  0.5711266343942186   T   T   T
  0.4444443262835602  0.7777778368582199  0.5238095301395711   F   F   F
  0.6694379236541480  0.3319374397187041  0.6194342990255879   T   T   T
  0.6640325082866799  1.0024896705798285  0.6197305593894720   T   T   T
  0.5566701671494770  0.2224136974158158  0.5718772889429043   T   T   T
  0.5576403391345439  0.8872305378410399  0.5716845760431875   T   T   T
  0.1111111701915534  0.4444443262835603  0.5238095301395711   F   F   F
  0.7777778368582202  0.4444443262835603  0.5238095301395711   F   F   F
  0.6699576416453800  0.6667220969988484  0.6188392144714753   T   T   T
  0.3274955671997633  0.6853223367795404  0.6668268612057823   T   T   T
  0.3375381761431787  0.6619777604411684  0.6905703004313403   T   T   T
