Ag Pd  C  O 
 1.0000000000000000
     8.4012246744318553    0.0000000000000000    0.0000000000000006
     0.0000000000000016    9.7556249397631500    0.0778334351619916
     0.0000000000000000    0.0000000000000000   41.2743430770740716
 Ag  Pd  C   O  
  24  24   1   1
Selective dynamics
Direct
  0.1666720876142173  0.2497263169190909  0.5853730079992250   T   T   T
  0.1666676878511964  0.7509018189707267  0.5852287826286638   T   T   T
  0.4990568167661649  0.2488786487204798  0.5853027272587585   T   T   T
  0.4984115846552715  0.7523633447873537  0.5850286585441782   T   T   T
  0.8342868043039507  0.2488777730033488  0.5853029540690541   T   T   T
  0.8349233427440796  0.7523639681178796  0.5850298743148998   T   T   T
  0.1666620677678544  0.4159526669548105  0.5279933665325636   T   T   T
  0.1666708368635816  0.9157628269497922  0.5278784714740165   T   T   T
  0.5009714977685479  0.4164190721601943  0.5283859269387912   T   T   T
  0.5003399155732258  0.9155886293910085  0.5278532717570904   T   T   T
  0.8323560316217435  0.4164188510010036  0.5283852680087551   T   T   T
  0.8330013259406989  0.9155882478086030  0.5278533089571218   T   T   T
  0.1666664815226225  0.0833334535709418  0.4722222217898217   F   F   F
  0.1666664815226226  0.5833334535709418  0.4722222217898217   F   F   F
  0.4999998148559556  0.0833334535709418  0.4722222217898217   F   F   F
  0.4999998148559556  0.5833334535709418  0.4722222217898217   F   F   F
  0.8333331481892892  0.0833334535709418  0.4722222217898217   F   F   F
  0.8333331481892892  0.5833334535709418  0.4722222217898217   F   F   F
  0.1666664815226225  0.2500001202376085  0.4166666662342661   F   F   F
  0.1666664815226226  0.7500001202376085  0.4166666662342661   F   F   F
  0.4999998148559556  0.2500001202376085  0.4166666662342661   F   F   F
  0.4999998148559556  0.7500001202376085  0.4166666662342661   F   F   F
  0.8333331481892892  0.2500001202376085  0.4166666662342661   F   F   F
  0.8333331481892892  0.7500001202376085  0.4166666662342661   F   F   F
  0.3329705214347874  0.0021076922687543  0.5829138927478584   T   T   T
  0.3307855774354008  0.5019941768604959  0.5831815329942097   T   T   T
  0.6666730196294988  0.0017122166686042  0.5829268104864660   T   T   T
  0.6666639006185597  0.5035210439423781  0.5860237693981810   T   T   T
  1.0003764399335768  0.0021072280386318  0.5829140684510962   T   T   T
  1.0025427499607471  0.5019930839660951  0.5831806796200725   T   T   T
  0.3334407565333720  0.1677111508364729  0.5279695534726755   T   T   T
  0.3335391679959938  0.6669379359080755  0.5279793792564949   T   T   T
  0.6666665429915952  0.1678051179506604  0.5280229234418478   T   T   T
  0.6666660908800147  0.6644624724653940  0.5285948009016600   T   T   T
  0.9998919319609453  0.1677104870623679  0.5279696378962331   T   T   T
  0.9997902515546515  0.6669391942887565  0.5279795228760503   T   T   T
  0.3333331481892897  0.3333334587597487  0.4722222226546229   F   F   F
  0.3333331481892897  0.8333334587597487  0.4722222226546229   F   F   F
  0.6666664815226231  0.3333334587597487  0.4722222226546229   F   F   F
  0.6666664815226231  0.8333334587597487  0.4722222226546229   F   F   F
  0.9999998148559561  0.3333334587597487  0.4722222226546229   F   F   F
  0.9999998148559563  0.8333334587597487  0.4722222226546229   F   F   F
  0.3333331481892892  0.0000001254264155  0.4166666670990671   F   F   F
  0.3333331481892892  0.5000001254264155  0.4166666670990673   F   F   F
  0.6666664815226225  0.0000001254264155  0.4166666670990671   F   F   F
  0.6666664815226224  0.5000001254264155  0.4166666670990673   F   F   F
  0.9999998148559557  0.0000001254264155  0.4166666670990671   F   F   F
  0.9999998148559557  0.5000001254264155  0.4166666670990673   F   F   F
  0.6666660953025334  0.4928298260717025  0.6315935797481784   T   T   T
  0.6666728561681712  0.4997284375759294  0.6595602033164680   T   T   T
