Ag Pd  C  O 
 1.0000000000000000
     8.4012246744318553    0.0000000000000000    0.0000000000000006
     0.0000000000000016    9.7556249397631500    0.0778334351619916
     0.0000000000000000    0.0000000000000000   41.2743430770740716
 Ag  Pd  C   O  
  24  24   1   1
Selective dynamics
Direct
  0.1666722513651881  0.2496687815143372  0.5853662025556745   T   T   T
  0.1666678624067306  0.7508701679698726  0.5852231228328536   T   T   T
  0.4990551013569797  0.2488313043724472  0.5852933443299229   T   T   T
  0.4983962323342734  0.7523449390691179  0.5850200384783385   T   T   T
  0.8342888746545521  0.2488303614061482  0.5852934837467930   T   T   T
  0.8349384880672164  0.7523456874024523  0.5850213438920679   T   T   T
  0.1666620365306689  0.4159419828234714  0.5279893488199405   T   T   T
  0.1666708321555052  0.9157496119251779  0.5278801637372361   T   T   T
  0.5009919394047035  0.4164241366181209  0.5283973028061302   T   T   T
  0.5003441288081761  0.9155806972434347  0.5278531553375105   T   T   T
  0.8323356847673077  0.4164238916441047  0.5283966596407506   T   T   T
  0.8329971224365054  0.9155803302429912  0.5278531815951972   T   T   T
  0.1666664815226225  0.0833334535709418  0.4722222217898217   F   F   F
  0.1666664815226226  0.5833334535709418  0.4722222217898217   F   F   F
  0.4999998148559556  0.0833334535709418  0.4722222217898217   F   F   F
  0.4999998148559556  0.5833334535709418  0.4722222217898217   F   F   F
  0.8333331481892892  0.0833334535709418  0.4722222217898217   F   F   F
  0.8333331481892892  0.5833334535709418  0.4722222217898217   F   F   F
  0.1666664815226225  0.2500001202376085  0.4166666662342661   F   F   F
  0.1666664815226226  0.7500001202376085  0.4166666662342661   F   F   F
  0.4999998148559556  0.2500001202376085  0.4166666662342661   F   F   F
  0.4999998148559556  0.7500001202376085  0.4166666662342661   F   F   F
  0.8333331481892892  0.2500001202376085  0.4166666662342661   F   F   F
  0.8333331481892892  0.7500001202376085  0.4166666662342661   F   F   F
  0.3329644318199432  0.0020751988125193  0.5829017946095678   T   T   T
  0.3307732055318485  0.5019641482329478  0.5831617100930014   T   T   T
  0.6666727978975463  0.0016837002256241  0.5829155920387371   T   T   T
  0.6666638678810786  0.5035267798035290  0.5860203366146910   T   T   T
  1.0003822927160169  0.0020747742467485  0.5829019600985090   T   T   T
  1.0025551485815622  0.5019629941059544  0.5831608075804054   T   T   T
  0.3334451613416893  0.1677267969852790  0.5279672262184586   T   T   T
  0.3335389934125633  0.6669409321719609  0.5279740036143932   T   T   T
  0.6666668891070197  0.1678210799867003  0.5280210629529190   T   T   T
  0.6666662279737657  0.6644407440890855  0.5286040831966339   T   T   T
  0.9998880471174747  0.1677261898508377  0.5279673120810457   T   T   T
  0.9997910816460450  0.6669422914082725  0.5279741514431163   T   T   T
  0.3333331481892897  0.3333334587597487  0.4722222226546229   F   F   F
  0.3333331481892897  0.8333334587597487  0.4722222226546229   F   F   F
  0.6666664815226231  0.3333334587597487  0.4722222226546229   F   F   F
  0.6666664815226231  0.8333334587597487  0.4722222226546229   F   F   F
  0.9999998148559561  0.3333334587597487  0.4722222226546229   F   F   F
  0.9999998148559563  0.8333334587597487  0.4722222226546229   F   F   F
  0.3333331481892892  0.0000001254264155  0.4166666670990671   F   F   F
  0.3333331481892892  0.5000001254264155  0.4166666670990673   F   F   F
  0.6666664815226225  0.0000001254264155  0.4166666670990671   F   F   F
  0.6666664815226224  0.5000001254264155  0.4166666670990673   F   F   F
  0.9999998148559557  0.0000001254264155  0.4166666670990671   F   F   F
  0.9999998148559557  0.5000001254264155  0.4166666670990673   F   F   F
  0.6666659988502116  0.4928608774214749  0.6316033063038792   T   T   T
  0.6666727946259322  0.4998357575214615  0.6595720800458609   T   T   T
