Pd  C  O 
 1.0000000000000000
     8.2582115393440390    0.0000000000000000    0.0000000000000006
    -4.1291057696720213    7.1518209828977302    0.0000000000000006
     0.0000000000000000    0.0000000000000000   40.4568089187138042
 Pd  C   O  
  36   1   1
Selective dynamics
Direct
  0.0000003242213467  0.0000001621106736  0.4166666666666669   F   F   F
  0.0000003242213467  0.3333334954440070  0.4166666666666669   F   F   F
  0.0000003242213466  0.6666668287773403  0.4166666666666669   F   F   F
  0.3333336575546800  0.0000001621106736  0.4166666666666669   F   F   F
  0.3333336575546800  0.3333334954440070  0.4166666666666669   F   F   F
  0.3333336575546799  0.6666668287773403  0.4166666666666669   F   F   F
  0.6666669908880133  0.0000001621106736  0.4166666666666669   F   F   F
  0.6666669908880132  0.3333334954440070  0.4166666666666669   F   F   F
  0.6666669908880132  0.6666668287773403  0.4166666666666669   F   F   F
  0.1111114353324573  0.2222223843328956  0.4722222222222223   F   F   F
  0.1111114353324573  0.5555557176662289  0.4722222222222223   F   F   F
  0.1111114353324574  0.8888890509995623  0.4722222222222223   F   F   F
  0.4444447686657906  0.2222223843328956  0.4722222222222223   F   F   F
  0.4444447686657906  0.5555557176662289  0.4722222222222223   F   F   F
  0.4444447686657906  0.8888890509995623  0.4722222222222223   F   F   F
  0.7777781019991239  0.2222223843328956  0.4722222222222223   F   F   F
  0.7777781019991239  0.5555557176662289  0.4722222222222223   F   F   F
  0.7777781019991239  0.8888890509995623  0.4722222222222223   F   F   F
  0.2221512069407409  0.1111752501048625  0.5276537007068322   T   T   T
  0.2222283443857125  0.4444451186211720  0.5277094557599122   T   T   T
  0.2221520289072395  0.7776435380591272  0.5276526267096497   T   T   T
  0.5556834861833456  0.1111735288624942  0.5276525909166698   T   T   T
  0.5563324042036839  0.4460069531744230  0.5282815165137910   T   T   T
  0.5563350947161479  0.7769902132402844  0.5282807012573530   T   T   T
  0.8888811165961621  0.1110988936779888  0.5277095499453840   T   T   T
  0.8888805913192430  0.4444483359654732  0.5277089069327813   T   T   T
  0.8873207026717604  0.7769961142818705  0.5282812211529515   T   T   T
  0.0024501588825433  0.0022878175941175  0.5839899089872728   T   T   T
  0.0000001684418171  0.3333312009324982  0.5838727476447135   T   T   T
  0.0024557797451884  0.6668289405853586  0.5839866808301084   T   T   T
  0.3333315561703675  0.0000007968890243  0.5840822756133585   T   T   T
  0.3310407568943664  0.3308775811011823  0.5839896247266880   T   T   T
  0.3310406638932557  0.6668307155117593  0.5839858969496986   T   T   T
  0.6665014357495793  0.0022920206439499  0.5839864919650368   T   T   T
  0.6665054009946665  0.3308782073222265  0.5839861015583978   T   T   T
  0.6666665445588313  0.6666666805132759  0.5863644931678900   T   T   T
  0.6666607453144101  0.6666610829239329  0.6320346818775959   T   T   T
  0.6666371026144072  0.6666370843587972  0.6607425376134783   T   T   T
