Ag Pd  C  O 
 1.0000000000000000
     8.4012246744318553    0.0000000000000000    0.0000000000000006
     0.0000000000000016    9.7556249397631500    0.0778334351619916
     0.0000000000000000    0.0000000000000000   41.2743430770740716
 Ag  Pd  C   O  
  24  24   1   1
Selective dynamics
Direct
  0.1647434095718971  0.2506729557412709  0.5850419133337602   T   T   T
  0.1662660340257837  0.7509895714931967  0.5854924026155661   T   T   T
  0.4999142088903489  0.2473162977046360  0.5853567094557165   T   T   T
  0.4999600994220004  0.7509775731288446  0.5855203445229364   T   T   T
  0.8351467356837112  0.2506620725698067  0.5850319020237463   T   T   T
  0.8336488342417262  0.7509769677916803  0.5854931049888297   T   T   T
  0.1669399291831859  0.4171744413934069  0.5280643281504671   T   T   T
  0.1667369275391387  0.9168780652920955  0.5279395662912465   T   T   T
  0.4999778316663192  0.4173975474812657  0.5281389239314637   T   T   T
  0.4999825143528585  0.9169702327906600  0.5280061301585744   T   T   T
  0.8329976086894071  0.4171807382737732  0.5280659800067300   T   T   T
  0.8332287102249978  0.9168756584280502  0.5279401225469900   T   T   T
  0.1666664815226225  0.0833334535709418  0.4722222217898217   F   F   F
  0.1666664815226226  0.5833334535709418  0.4722222217898217   F   F   F
  0.4999998148559556  0.0833334535709418  0.4722222217898217   F   F   F
  0.4999998148559556  0.5833334535709418  0.4722222217898217   F   F   F
  0.8333331481892892  0.0833334535709418  0.4722222217898217   F   F   F
  0.8333331481892892  0.5833334535709418  0.4722222217898217   F   F   F
  0.1666664815226225  0.2500001202376085  0.4166666662342661   F   F   F
  0.1666664815226226  0.7500001202376085  0.4166666662342661   F   F   F
  0.4999998148559556  0.2500001202376085  0.4166666662342661   F   F   F
  0.4999998148559556  0.7500001202376085  0.4166666662342661   F   F   F
  0.8333331481892892  0.2500001202376085  0.4166666662342661   F   F   F
  0.8333331481892892  0.7500001202376085  0.4166666662342661   F   F   F
  0.3323899871104809  0.0003680099624194  0.5832265052916178   T   T   T
  0.3325490113931059  0.5030628430402762  0.5837559659413570   T   T   T
  0.6675256812770844  0.0003598177433244  0.5832249202396601   T   T   T
  0.6673064545691959  0.5030224135041611  0.5837778571351783   T   T   T
  0.9999615970223075  0.0020674329118439  0.5832446349367657   T   T   T
  0.9999493496478195  0.5030715358336538  0.5832160927026220   T   T   T
  0.3339361511685970  0.1691340053433618  0.5282580855092459   T   T   T
  0.3335004063306808  0.6681351277778789  0.5282446589499055   T   T   T
  0.6660119308259249  0.1691267113539242  0.5282537102097109   T   T   T
  0.6664529614060459  0.6681221500038282  0.5282508007791789   T   T   T
  0.9999748694760885  0.1681346511078898  0.5278517276836562   T   T   T
  0.9999744881929897  0.6685168834338379  0.5280559580458380   T   T   T
  0.3333331481892897  0.3333334587597487  0.4722222226546229   F   F   F
  0.3333331481892897  0.8333334587597487  0.4722222226546229   F   F   F
  0.6666664815226231  0.3333334587597487  0.4722222226546229   F   F   F
  0.6666664815226231  0.8333334587597487  0.4722222226546229   F   F   F
  0.9999998148559561  0.3333334587597487  0.4722222226546229   F   F   F
  0.9999998148559563  0.8333334587597487  0.4722222226546229   F   F   F
  0.3333331481892892  0.0000001254264155  0.4166666670990671   F   F   F
  0.3333331481892892  0.5000001254264155  0.4166666670990673   F   F   F
  0.6666664815226225  0.0000001254264155  0.4166666670990671   F   F   F
  0.6666664815226224  0.5000001254264155  0.4166666670990673   F   F   F
  0.9999998148559557  0.0000001254264155  0.4166666670990671   F   F   F
  0.9999998148559557  0.5000001254264155  0.4166666670990673   F   F   F
  0.5009069174721148  0.2967274027037323  0.6351335507239354   T   T   T
  0.5016423574023049  0.2572166051854080  0.6616367102747015   T   T   T
