Ag Pd  C  O 
 1.0000000000000000
     8.4012246744318553    0.0000000000000000    0.0000000000000006
     0.0000000000000016    9.7556249397631500    0.0778334351619916
     0.0000000000000000    0.0000000000000000   41.2743430770740716
 Ag  Pd  C   O  
  24  24   1   1
Selective dynamics
Direct
  0.1666720314270492  0.2497143427433046  0.5853761951733514   T   T   T
  0.1666677576248940  0.7509059020935626  0.5852308696540934   T   T   T
  0.4990634076226151  0.2488756832450064  0.5853057168904061   T   T   T
  0.4984167813164094  0.7523610363861747  0.5850309547528397   T   T   T
  0.8342801766977503  0.2488747859713516  0.5853059338433435   T   T   T
  0.8349180675942647  0.7523617336526672  0.5850321743131884   T   T   T
  0.1666620305920590  0.4159593643638245  0.5279943837936152   T   T   T
  0.1666708160116315  0.9157607099756858  0.5278810859228776   T   T   T
  0.5009692989009511  0.4164250670075525  0.5283884026948865   T   T   T
  0.5003374376190131  0.9155873855616837  0.5278559174605419   T   T   T
  0.8323582580344492  0.4164247759151125  0.5283877448692501   T   T   T
  0.8330037447406771  0.9155870850940385  0.5278559488759279   T   T   T
  0.1666664815226225  0.0833334535709418  0.4722222217898217   F   F   F
  0.1666664815226226  0.5833334535709418  0.4722222217898217   F   F   F
  0.4999998148559556  0.0833334535709418  0.4722222217898217   F   F   F
  0.4999998148559556  0.5833334535709418  0.4722222217898217   F   F   F
  0.8333331481892892  0.0833334535709418  0.4722222217898217   F   F   F
  0.8333331481892892  0.5833334535709418  0.4722222217898217   F   F   F
  0.1666664815226225  0.2500001202376085  0.4166666662342661   F   F   F
  0.1666664815226226  0.7500001202376085  0.4166666662342661   F   F   F
  0.4999998148559556  0.2500001202376085  0.4166666662342661   F   F   F
  0.4999998148559556  0.7500001202376085  0.4166666662342661   F   F   F
  0.8333331481892892  0.2500001202376085  0.4166666662342661   F   F   F
  0.8333331481892892  0.7500001202376085  0.4166666662342661   F   F   F
  0.3329680871600897  0.0020987812229147  0.5829073130987169   T   T   T
  0.3307868654387788  0.5019844655468451  0.5831711715676388   T   T   T
  0.6666729250290323  0.0017067501304188  0.5829201147483125   T   T   T
  0.6666638850944175  0.5035210689279412  0.5860059464864940   T   T   T
  1.0003787949489904  0.0020983430748395  0.5829074826386013   T   T   T
  1.0025414979125851  0.5019833287684082  0.5831702955583399   T   T   T
  0.3334434361646526  0.1677103997165991  0.5279701536114352   T   T   T
  0.3335370418003440  0.6669356939814091  0.5279777064536270   T   T   T
  0.6666666967617155  0.1678029192316543  0.5280233514837295   T   T   T
  0.6666661268791205  0.6644514163198726  0.5285986886444389   T   T   T
  0.9998894284253871  0.1677097655947994  0.5279702435061353   T   T   T
  0.9997926489196947  0.6669369846990824  0.5279778524067670   T   T   T
  0.3333331481892897  0.3333334587597487  0.4722222226546229   F   F   F
  0.3333331481892897  0.8333334587597487  0.4722222226546229   F   F   F
  0.6666664815226231  0.3333334587597487  0.4722222226546229   F   F   F
  0.6666664815226231  0.8333334587597487  0.4722222226546229   F   F   F
  0.9999998148559561  0.3333334587597487  0.4722222226546229   F   F   F
  0.9999998148559563  0.8333334587597487  0.4722222226546229   F   F   F
  0.3333331481892892  0.0000001254264155  0.4166666670990671   F   F   F
  0.3333331481892892  0.5000001254264155  0.4166666670990673   F   F   F
  0.6666664815226225  0.0000001254264155  0.4166666670990671   F   F   F
  0.6666664815226224  0.5000001254264155  0.4166666670990673   F   F   F
  0.9999998148559557  0.0000001254264155  0.4166666670990671   F   F   F
  0.9999998148559557  0.5000001254264155  0.4166666670990673   F   F   F
  0.6666660393830538  0.4928474542798421  0.6316198037922883   T   T   T
  0.6666727101841876  0.4997492559927597  0.6595538697442068   T   T   T
