Ag  H Pd  O 
 1.0000000000000000
     8.3348369443761747    0.0000000000000000    0.0000000000000005
     4.1674184721880891    7.2181805302308319    0.0000000000000005
     0.0000000000000000    0.0000000000000000   47.6375610737127033
 Ag  H   Pd  O  
   9   1  27   1
Selective dynamics
Direct
  0.6666666666666667  0.6666666666666667  0.4761904572003339   F   F   F
  0.4444444444444448  0.4444444444444445  0.5238095048193816   F   F   F
  0.4444444444444446  1.1111111111111112  0.5238095048193816   F   F   F
  1.0026739199249675  0.6713118760210893  0.6210717147971537   T   T   T
  0.3355657255988025  0.6714563306311064  0.6213702447314864   T   T   T
  0.2246260324848890  0.2245820767319058  0.5713926293226335   T   T   T
  0.2261029558302192  0.8883216424480289  0.5720224939239466   T   T   T
  0.8899954044559810  0.2246393320778314  0.5714388030693659   T   T   T
  0.8906141520235351  0.8896612284913066  0.5718632931423039   T   T   T
  0.6749274952378557  0.6661729645108927  0.6873688947680574   T   T   T
  0.3333333924137755  0.3333333924137756  0.4761904825205235   F   F   F
  0.3333333924137756  1.0000000590804423  0.4761904825205235   F   F   F
  1.0000000590804421  0.3333333924137756  0.4761904825205235   F   F   F
  1.0000000590804421  1.0000000590804423  0.4761904825205235   F   F   F
  0.6666665485057828  0.3333333924137756  0.4761904825205235   F   F   F
  0.6666665485057829  1.0000000590804423  0.4761904825205235   F   F   F
  0.3333333924137759  0.6666665485057824  0.4761904825205235   F   F   F
  1.0000000590804428  0.6666665485057824  0.4761904825205235   F   F   F
  0.5590792490423881  0.5579873861724689  0.5723960061092876   T   T   T
  0.1111111701915532  0.1111111701915532  0.5238095301395711   F   F   F
  0.1111111701915533  0.7777778368582199  0.5238095301395711   F   F   F
  0.7777778368582201  0.1111111701915532  0.5238095301395711   F   F   F
  0.7777778368582201  0.7777778368582199  0.5238095301395711   F   F   F
  0.3382267708452854  0.3351733229605369  0.6191920250651601   T   T   T
  0.3345478452701757  1.0086159113778193  0.6197226085743376   T   T   T
  1.0036336977642009  0.3355829252722597  0.6193631647407082   T   T   T
  1.0007808730598633  1.0090918513750768  0.6204122955575289   T   T   T
  0.2244883203690644  0.5560462844110331  0.5715627861488441   T   T   T
  0.8875464787956905  0.5591148836655414  0.5720508177204908   T   T   T
  0.4444443262835602  0.7777778368582199  0.5238095301395711   F   F   F
  0.6707241298077231  0.3353228565797869  0.6192265770434836   T   T   T
  0.6668039320446107  1.0082168957119062  0.6194394209022066   T   T   T
  0.5577480813410440  0.2245459396651009  0.5716293849948242   T   T   T
  0.5609188595130639  0.8854694310602024  0.5728380084836223   T   T   T
  0.1111111701915534  0.4444443262835603  0.5238095301395711   F   F   F
  0.7777778368582202  0.4444443262835603  0.5238095301395711   F   F   F
  0.6689306780519801  0.6720339725559314  0.6247712160235156   T   T   T
  0.6744383420441012  0.6645861182780159  0.6667003470792338   T   T   T
