Ag  H Pd  O 
 1.0000000000000000
     8.3348369443761747    0.0000000000000000    0.0000000000000005
     4.1674184721880891    7.2181805302308319    0.0000000000000005
     0.0000000000000000    0.0000000000000000   47.6375610737127033
 Ag  H   Pd  O  
   9   1  27   1
Selective dynamics
Direct
  0.6666666666666667  0.6666666666666667  0.4761904572003339   F   F   F
  0.4444444444444448  0.4444444444444445  0.5238095048193816   F   F   F
  0.4444444444444446  1.1111111111111112  0.5238095048193816   F   F   F
  0.9992672283158207  0.6692947127619573  0.6218779301631449   T   T   T
  0.3321739003984616  0.6694418357928366  0.6219187301521781   T   T   T
  0.2233170317225408  0.2228662658982900  0.5716811262816138   T   T   T
  0.2249079008749733  0.8865709565241021  0.5722960073199638   T   T   T
  0.8892498083646415  0.2227200091765228  0.5716296751793351   T   T   T
  0.8899446538328307  0.8877524626585408  0.5722227650517093   T   T   T
  0.7607106908690178  0.6684349849054794  0.6709236585784271   T   T   T
  0.3333333924137755  0.3333333924137756  0.4761904825205235   F   F   F
  0.3333333924137756  1.0000000590804423  0.4761904825205235   F   F   F
  1.0000000590804421  0.3333333924137756  0.4761904825205235   F   F   F
  1.0000000590804421  1.0000000590804423  0.4761904825205235   F   F   F
  0.6666665485057828  0.3333333924137756  0.4761904825205235   F   F   F
  0.6666665485057829  1.0000000590804423  0.4761904825205235   F   F   F
  0.3333333924137759  0.6666665485057824  0.4761904825205235   F   F   F
  1.0000000590804428  0.6666665485057824  0.4761904825205235   F   F   F
  0.5573056110386694  0.5554450445738162  0.5718123176441104   T   T   T
  0.1111111701915532  0.1111111701915532  0.5238095301395711   F   F   F
  0.1111111701915533  0.7777778368582199  0.5238095301395711   F   F   F
  0.7777778368582201  0.1111111701915532  0.5238095301395711   F   F   F
  0.7777778368582201  0.7777778368582199  0.5238095301395711   F   F   F
  0.3355808309819512  0.3333589334292433  0.6194679606479577   T   T   T
  0.3325392077775081  1.0065081908617013  0.6199580613077857   T   T   T
  1.0002710707813582  0.3349574670890546  0.6196361234144609   T   T   T
  0.9974912811155564  1.0079222974552702  0.6207343840822084   T   T   T
  0.2233231738677572  0.5542712758459692  0.5718548522846284   T   T   T
  0.8879574230726055  0.5566859071159961  0.5715750587150044   T   T   T
  0.4444443262835602  0.7777778368582199  0.5238095301395711   F   F   F
  0.6670989407465167  0.3344238775862299  0.6192851620992724   T   T   T
  0.6633755166299512  1.0059698797512986  0.6196383096167082   T   T   T
  0.5568531053299393  0.2227057378611728  0.5718421546224677   T   T   T
  0.5589189220347228  0.8856951104550836  0.5721776934756408   T   T   T
  0.1111111701915534  0.4444443262835603  0.5238095301395711   F   F   F
  0.7777778368582202  0.4444443262835603  0.5238095301395711   F   F   F
  0.6646024879526268  0.6708427829869792  0.6208305607057620   T   T   T
  0.6537490609345006  0.6599078487949541  0.6641851285359728   T   T   T
