Ag Pd 
 1.0000000000000000
     8.4012246744318553    0.0000000000000000    0.0000000000000006
     0.0000000000000016    9.7556249397631500    0.0778334351619916
     0.0000000000000000    0.0000000000000000   41.2743430770740716
 Ag  Pd 
  24  24
Selective dynamics
Direct
  0.1666651348133566  0.2501455032862749  0.5852361953609331   T   T   T
  0.1666651321594378  0.7501638037745767  0.5852311210003798   T   T   T
  0.4999989832144076  0.2501455098539620  0.5852359188001420   T   T   T
  0.4999989608961805  0.7501637992901820  0.5852308411659567   T   T   T
  0.8333333990547966  0.2501454919569318  0.5852360882880584   T   T   T
  0.8333333681554727  0.7501637809287683  0.5852310132249253   T   T   T
  0.1666711198977140  0.4158121170302356  0.5279131243529156   T   T   T
  0.1666711141347729  0.9158147541793417  0.5279123083758716   T   T   T
  0.5000045603223956  0.4158121457177763  0.5279130458323903   T   T   T
  0.5000045532713228  0.9158147975615705  0.5279122291081298   T   T   T
  0.8333381771869308  0.4158121837671504  0.5279130852048945   T   T   T
  0.8333381507146518  0.9158148208796402  0.5279122657019767   T   T   T
  0.1666664815226225  0.0833334535709418  0.4722222217898217   F   F   F
  0.1666664815226226  0.5833334535709418  0.4722222217898217   F   F   F
  0.4999998148559556  0.0833334535709418  0.4722222217898217   F   F   F
  0.4999998148559556  0.5833334535709418  0.4722222217898217   F   F   F
  0.8333331481892892  0.0833334535709418  0.4722222217898217   F   F   F
  0.8333331481892892  0.5833334535709418  0.4722222217898217   F   F   F
  0.1666664815226225  0.2500001202376085  0.4166666662342661   F   F   F
  0.1666664815226226  0.7500001202376085  0.4166666662342661   F   F   F
  0.4999998148559556  0.2500001202376085  0.4166666662342661   F   F   F
  0.4999998148559556  0.7500001202376085  0.4166666662342661   F   F   F
  0.8333331481892892  0.2500001202376085  0.4166666662342661   F   F   F
  0.8333331481892892  0.7500001202376085  0.4166666662342661   F   F   F
  0.3333353213245772  0.0017673013451695  0.5829958591656899   T   T   T
  0.3333353515224005  0.5017734348341996  0.5829926020875567   T   T   T
  0.6666699956985767  0.0017672989942396  0.5829957808081571   T   T   T
  0.6666700600170747  0.5017734776207007  0.5829925355802916   T   T   T
  1.0000029321086332  0.0017672900832693  0.5829959914986930   T   T   T
  1.0000029673309492  0.5017734331611452  0.5829927416726759   T   T   T
  0.3333351284562883  0.1674414281180318  0.5278673401525995   T   T   T
  0.3333352048920071  0.6674483772368210  0.5278640785741155   T   T   T
  0.6666688426602057  0.1674415138915625  0.5278673179048654   T   T   T
  0.6666688749332356  0.6674484397740172  0.5278640395878602   T   T   T
  1.0000020945907366  0.1674414915311925  0.5278673843644478   T   T   T
  1.0000021525342964  0.6674484282291520  0.5278641117132391   T   T   T
  0.3333331481892897  0.3333334587597487  0.4722222226546229   F   F   F
  0.3333331481892897  0.8333334587597487  0.4722222226546229   F   F   F
  0.6666664815226231  0.3333334587597487  0.4722222226546229   F   F   F
  0.6666664815226231  0.8333334587597487  0.4722222226546229   F   F   F
  0.9999998148559561  0.3333334587597487  0.4722222226546229   F   F   F
  0.9999998148559563  0.8333334587597487  0.4722222226546229   F   F   F
  0.3333331481892892  0.0000001254264155  0.4166666670990671   F   F   F
  0.3333331481892892  0.5000001254264155  0.4166666670990673   F   F   F
  0.6666664815226225  0.0000001254264155  0.4166666670990671   F   F   F
  0.6666664815226224  0.5000001254264155  0.4166666670990673   F   F   F
  0.9999998148559557  0.0000001254264155  0.4166666670990671   F   F   F
  0.9999998148559557  0.5000001254264155  0.4166666670990673   F   F   F
