Ag Pd 
 1.0000000000000000
     8.4012246744318553    0.0000000000000000    0.0000000000000006
     0.0000000000000016    9.7556249397631500    0.0778334351619916
     0.0000000000000000    0.0000000000000000   41.2743430770740716
 Ag  Pd 
  24  24
Selective dynamics
Direct
  0.1666657076356408  0.2499592413407415  0.5852064280558149   T   T   T
  0.1666657231874165  0.7499705503843547  0.5851995377226373   T   T   T
  0.4999989781182598  0.2499592739393769  0.5852064339802803   T   T   T
  0.4999989526858130  0.7499705361826354  0.5851995409089144   T   T   T
  0.8333322808177404  0.2499592258445303  0.5852063706077110   T   T   T
  0.8333322411399441  0.7499704944942053  0.5851994808489099   T   T   T
  0.1666707958798435  0.4158110604358410  0.5279333508938018   T   T   T
  0.1666707948172150  0.9158056010529614  0.5279312528714791   T   T   T
  0.5000040658182938  0.4158111224178155  0.5279333455742165   T   T   T
  0.5000040590226230  0.9158056491865897  0.5279312408632321   T   T   T
  0.8333374791646493  0.4158111573278842  0.5279333284166210   T   T   T
  0.8333374626008390  0.9158056664430129  0.5279312255831022   T   T   T
  0.1666664815226225  0.0833334535709418  0.4722222217898217   F   F   F
  0.1666664815226226  0.5833334535709418  0.4722222217898217   F   F   F
  0.4999998148559556  0.0833334535709418  0.4722222217898217   F   F   F
  0.4999998148559556  0.5833334535709418  0.4722222217898217   F   F   F
  0.8333331481892892  0.0833334535709418  0.4722222217898217   F   F   F
  0.8333331481892892  0.5833334535709418  0.4722222217898217   F   F   F
  0.1666664815226225  0.2500001202376085  0.4166666662342661   F   F   F
  0.1666664815226226  0.7500001202376085  0.4166666662342661   F   F   F
  0.4999998148559556  0.2500001202376085  0.4166666662342661   F   F   F
  0.4999998148559556  0.7500001202376085  0.4166666662342661   F   F   F
  0.8333331481892892  0.2500001202376085  0.4166666662342661   F   F   F
  0.8333331481892892  0.7500001202376085  0.4166666662342661   F   F   F
  0.3333355927781176  0.0018581695761809  0.5829068904341891   T   T   T
  0.3333356499828353  0.5018611475632193  0.5829045205073263   T   T   T
  0.6666688169568419  0.0018581731118069  0.5829068568130795   T   T   T
  0.6666688634035575  0.5018611890639302  0.5829044981799550   T   T   T
  1.0000022815288241  0.0018581870637425  0.5829068476472474   T   T   T
  1.0000023141911125  0.5018611464232532  0.5829044831761089   T   T   T
  0.3333356672867501  0.1673327483829288  0.5278351050579467   T   T   T
  0.3333357486795626  0.6673386795252572  0.5278312529773662   T   T   T
  0.6666690172809466  0.1673328770840465  0.5278350986117507   T   T   T
  0.6666690365685833  0.6673387651711261  0.5278312304992504   T   T   T
  1.0000024152658034  0.1673328155184177  0.5278351022790764   T   T   T
  1.0000024722333272  0.6673387318418550  0.5278312375181951   T   T   T
  0.3333331481892897  0.3333334587597487  0.4722222226546229   F   F   F
  0.3333331481892897  0.8333334587597487  0.4722222226546229   F   F   F
  0.6666664815226231  0.3333334587597487  0.4722222226546229   F   F   F
  0.6666664815226231  0.8333334587597487  0.4722222226546229   F   F   F
  0.9999998148559561  0.3333334587597487  0.4722222226546229   F   F   F
  0.9999998148559563  0.8333334587597487  0.4722222226546229   F   F   F
  0.3333331481892892  0.0000001254264155  0.4166666670990671   F   F   F
  0.3333331481892892  0.5000001254264155  0.4166666670990673   F   F   F
  0.6666664815226225  0.0000001254264155  0.4166666670990671   F   F   F
  0.6666664815226224  0.5000001254264155  0.4166666670990673   F   F   F
  0.9999998148559557  0.0000001254264155  0.4166666670990671   F   F   F
  0.9999998148559557  0.5000001254264155  0.4166666670990673   F   F   F
