Ag  H Pd  O 
 1.0000000000000000
     8.5013114179517117    0.0000000000000000    0.0000000000000005
     4.2506557089758541    7.3623516534288900    0.0000000000000005
     0.0000000000000000    0.0000000000000000   48.5890419431158733
 Ag  H   Pd  O  
  26   1  10   1
Selective dynamics
Direct
  0.6666666666666671  0.6666666666666666  0.4761904911784334   F   F   F
  0.3333332867041333  0.3333332867041335  0.4761904711944905   F   F   F
  0.3333332867041333  0.9999999533708002  0.4761904711944905   F   F   F
  0.9999999533707997  0.3333332867041335  0.4761904711944905   F   F   F
  0.9999999533707999  0.9999999533708002  0.4761904711944905   F   F   F
  0.6666667599250664  0.3333332867041335  0.4761904711944905   F   F   F
  0.6666667599250664  0.9999999533708002  0.4761904711944905   F   F   F
  0.4444444444444445  0.4444444444444445  0.5238095387974809   F   F   F
  0.6643155379259872  0.6706096144966135  0.6215198013089323   T   T   T
  0.2232129491747242  0.2220562071578162  0.5710892745335768   T   T   T
  0.2213557552638421  0.8911740591751657  0.5713067962627103   T   T   T
  0.8868740595574153  0.2226700351354600  0.5709871413101808   T   T   T
  0.8846463567444830  0.8922696187224235  0.5712925242915347   T   T   T
  0.5567731245999125  0.5566732671485498  0.5717983976079515   T   T   T
  0.1111110644819112  0.7777777311485777  0.5238095188135381   F   F   F
  0.7777777311485781  0.7777777311485777  0.5238095188135381   F   F   F
  0.3305547746475215  0.3377602218448683  0.6200645869620659   T   T   T
  0.3298061142597817  1.0012288190317529  0.6197378199457313   T   T   T
  0.9990097870013672  0.3357998636960541  0.6202187521487391   T   T   T
  0.9998761833082660  0.9984273171637706  0.6208420333856215   T   T   T
  0.2221322828820413  0.5537066578338188  0.5711024621294041   T   T   T
  0.8858381049489615  0.5568520119820266  0.5715085665038030   T   T   T
  0.4444445377028442  0.1111110644819113  0.5238095188135381   F   F   F
  0.4444445377028442  0.7777777311485780  0.5238095188135381   F   F   F
  0.6635124083545942  0.3343253476938072  0.6196143325363350   T   T   T
  0.6662002727706888  1.0014229731759154  0.6194014327670382   T   T   T
  0.7691160006181759  0.6602524874989780  0.6761118064377808   T   T   T
  0.3333332867041338  0.6666667599250664  0.4761904711944905   F   F   F
  0.9999999533708005  0.6666667599250664  0.4761904711944905   F   F   F
  0.5554456522991568  0.2217418927267915  0.5714320932632269   T   T   T
  0.5550930843811385  0.8882706282944287  0.5720865509472528   T   T   T
  0.1111110644819112  0.4444445377028443  0.5238095188135381   F   F   F
  0.1111110644819112  1.1111112043695111  0.5238095188135381   F   F   F
  0.7777777311485784  0.4444445377028443  0.5238095188135381   F   F   F
  0.7777777311485777  1.1111112043695111  0.5238095188135381   F   F   F
  0.3272775800483474  0.6688663108308075  0.6176989345530322   T   T   T
  1.0012419566032453  0.6679670378551221  0.6178890341615488   T   T   T
  0.6601054857074473  0.6614193222902949  0.6689974953171541   T   T   T
