 H Pd  O 
 1.0000000000000000
     8.2582115393440390    0.0000000000000000    0.0000000000000006
    -4.1291057696720213    7.1518209828977302    0.0000000000000006
     0.0000000000000000    0.0000000000000000   40.4568089187138042
 H   Pd  O  
   1  36   1
Selective dynamics
Direct
  0.7620568366158683  0.6663261305606382  0.6452034130313214   T   T   T
  0.0000003242213467  0.0000001621106736  0.4166666666666669   F   F   F
  0.0000003242213467  0.3333334954440070  0.4166666666666669   F   F   F
  0.0000003242213466  0.6666668287773403  0.4166666666666669   F   F   F
  0.3333336575546800  0.0000001621106736  0.4166666666666669   F   F   F
  0.3333336575546800  0.3333334954440070  0.4166666666666669   F   F   F
  0.3333336575546799  0.6666668287773403  0.4166666666666669   F   F   F
  0.6666669908880133  0.0000001621106736  0.4166666666666669   F   F   F
  0.6666669908880132  0.3333334954440070  0.4166666666666669   F   F   F
  0.6666669908880132  0.6666668287773403  0.4166666666666669   F   F   F
  0.1111114353324573  0.2222223843328956  0.4722222222222223   F   F   F
  0.1111114353324573  0.5555557176662289  0.4722222222222223   F   F   F
  0.1111114353324574  0.8888890509995623  0.4722222222222223   F   F   F
  0.4444447686657906  0.2222223843328956  0.4722222222222223   F   F   F
  0.4444447686657906  0.5555557176662289  0.4722222222222223   F   F   F
  0.4444447686657906  0.8888890509995623  0.4722222222222223   F   F   F
  0.7777781019991239  0.2222223843328956  0.4722222222222223   F   F   F
  0.7777781019991239  0.5555557176662289  0.4722222222222223   F   F   F
  0.7777781019991239  0.8888890509995623  0.4722222222222223   F   F   F
  0.2223853957382761  0.1109554876539714  0.5275463013232259   T   T   T
  0.2222827337155493  0.4442570307296869  0.5275591265917352   T   T   T
  0.2222367481006942  0.7779662571581747  0.5275128890389301   T   T   T
  0.5556372473465421  0.1111927841905063  0.5275615380081426   T   T   T
  0.5565699240101931  0.4459180922353049  0.5281590211843910   T   T   T
  0.5563913293732535  0.7772531352276384  0.5280051998190609   T   T   T
  0.8892825190940047  0.1112883751853336  0.5276068265105306   T   T   T
  0.8891672125020469  0.4444104270762047  0.5276500126247577   T   T   T
  0.8875754162920998  0.7770211984873902  0.5281904552273010   T   T   T
  0.0015631662688827  0.0006396993474361  0.5837416648510807   T   T   T
  0.0003807550908767  0.3331094310362688  0.5839004772695836   T   T   T
  0.0015177138692102  0.6665862204056043  0.5838115026012717   T   T   T
  0.3336741544875362 -0.0002873959417891  0.5840027279400001   T   T   T
  0.3322330565970921  0.3314127080426283  0.5836061695242610   T   T   T
  0.3319300208724476  0.6666158311929100  0.5834220804961321   T   T   T
  0.6669964976700207  0.0011203396466678  0.5835599614993251   T   T   T
  0.6671280035787479  0.3319563974163027  0.5837647961414864   T   T   T
  0.6664830279944290  0.6660212426182379  0.5859761813806680   T   T   T
  0.6508199709621285  0.6678312346051253  0.6368690698953227   T   T   T
