Ag Pd  C  O 
 1.0000000000000000
     8.3348369443761747    0.0000000000000000    0.0000000000000005
     4.1674184721880891    7.2181805302308319    0.0000000000000005
     0.0000000000000000    0.0000000000000000   47.6375610737127033
 Ag  Pd  C   O  
   9  27   1   1
Selective dynamics
Direct
  0.6666666666666667  0.6666666666666667  0.4761904572003339   F   F   F
  0.4444444444444448  0.4444444444444445  0.5238095048193816   F   F   F
  0.4444444444444446  1.1111111111111112  0.5238095048193816   F   F   F
  0.9981041320207233  0.6668909490942163  0.6221957291482809   T   T   T
  0.3360912191755905  0.6644106848173779  0.6225899440321873   T   T   T
  0.2228295222965611  0.2224952237650188  0.5717134935805520   T   T   T
  0.2248648860905790  0.8858557189516476  0.5724851814099030   T   T   T
  0.8890432963150736  0.2224534994476814  0.5716627765035590   T   T   T
  0.8900543517685208  0.8873451670734736  0.5723131922162643   T   T   T
  0.3333333924137755  0.3333333924137756  0.4761904825205235   F   F   F
  0.3333333924137756  1.0000000590804423  0.4761904825205235   F   F   F
  1.0000000590804421  0.3333333924137756  0.4761904825205235   F   F   F
  1.0000000590804421  1.0000000590804423  0.4761904825205235   F   F   F
  0.6666665485057828  0.3333333924137756  0.4761904825205235   F   F   F
  0.6666665485057829  1.0000000590804423  0.4761904825205235   F   F   F
  0.3333333924137759  0.6666665485057824  0.4761904825205235   F   F   F
  1.0000000590804428  0.6666665485057824  0.4761904825205235   F   F   F
  0.5554211197199733  0.5554001318939805  0.5717467162492494   T   T   T
  0.1111111701915532  0.1111111701915532  0.5238095301395711   F   F   F
  0.1111111701915533  0.7777778368582199  0.5238095301395711   F   F   F
  0.7777778368582201  0.1111111701915532  0.5238095301395711   F   F   F
  0.7777778368582201  0.7777778368582199  0.5238095301395711   F   F   F
  0.3370526588654325  0.3291864867618055  0.6192923343025549   T   T   T
  0.3357527395309597  1.0035345809518093  0.6200553948031344   T   T   T
  1.0000352241562560  0.3335524352078792  0.6198684796692753   T   T   T
  0.9972388509769459  1.0073247808894608  0.6207489294988785   T   T   T
  0.2235086567645594  0.5549216291656305  0.5721390567609622   T   T   T
  0.8893665281908540  0.5555626154793607  0.5711381062149227   T   T   T
  0.4444443262835602  0.7777778368582199  0.5238095301395711   F   F   F
  0.6694700460431179  0.3318929906357235  0.6194471785476380   T   T   T
  0.6641149402045685  1.0024754913716460  0.6197419615038764   T   T   T
  0.5567104981499158  0.2224121586417156  0.5718759820628189   T   T   T
  0.5576754844776664  0.8871721726076993  0.5716873656370938   T   T   T
  0.1111111701915534  0.4444443262835603  0.5238095301395711   F   F   F
  0.7777778368582202  0.4444443262835603  0.5238095301395711   F   F   F
  0.6699316642036748  0.6667821410474689  0.6188441437320321   T   T   T
  0.3274160852580207  0.6854895012037483  0.6667717826097911   T   T   T
  0.3375895481191098  0.6618932131029100  0.6906148180511639   T   T   T
