Ag Pd  C  O 
 1.0000000000000000
     8.5013114179517117    0.0000000000000000    0.0000000000000005
     4.2506557089758541    7.3623516534288900    0.0000000000000005
     0.0000000000000000    0.0000000000000000   48.5890419431158733
 Ag  Pd  C   O  
  26  10   1   1
Selective dynamics
Direct
  0.6666666666666671  0.6666666666666666  0.4761904911784334   F   F   F
  0.3333332867041333  0.3333332867041335  0.4761904711944905   F   F   F
  0.3333332867041333  0.9999999533708002  0.4761904711944905   F   F   F
  0.9999999533707997  0.3333332867041335  0.4761904711944905   F   F   F
  0.9999999533707999  0.9999999533708002  0.4761904711944905   F   F   F
  0.6666667599250664  0.3333332867041335  0.4761904711944905   F   F   F
  0.6666667599250664  0.9999999533708002  0.4761904711944905   F   F   F
  0.4444444444444445  0.4444444444444445  0.5238095387974809   F   F   F
  0.6683740445024181  0.6675290107978953  0.6200599204779784   T   T   T
  0.2235175659874886  0.2217872597876085  0.5711371355384436   T   T   T
  0.2234405779196471  0.8878357343575748  0.5718657779635556   T   T   T
  0.8877001058370031  0.2222069824926091  0.5708961531870945   T   T   T
  0.8853954698600290  0.8918190686067095  0.5713107459649939   T   T   T
  0.5544444996074719  0.5566215393906815  0.5718737607576736   T   T   T
  0.1111110644819112  0.7777777311485777  0.5238095188135381   F   F   F
  0.7777777311485781  0.7777777311485777  0.5238095188135381   F   F   F
  0.3321335493746673  0.3347853861432484  0.6199305571134535   T   T   T
  0.3334805658613463  1.0004610324735124  0.6199337490978585   T   T   T
  0.9996994888856220  0.3349424920263608  0.6204986655653407   T   T   T
  0.9996121919394889  0.9986549942321259  0.6204537265592649   T   T   T
  0.2246216042103307  0.5551073301258385  0.5717615001219619   T   T   T
  0.8882836520221008  0.5555734408341018  0.5711464714469048   T   T   T
  0.4444445377028442  0.1111110644819113  0.5238095188135381   F   F   F
  0.4444445377028442  0.7777777311485780  0.5238095188135381   F   F   F
  0.6673680519312262  0.3319954954008096  0.6198231251387515   T   T   T
  0.6671458869227619  0.9990147750026898  0.6195012987291876   T   T   T
  0.3333332867041338  0.6666667599250664  0.4761904711944905   F   F   F
  0.9999999533708005  0.6666667599250664  0.4761904711944905   F   F   F
  0.5560347548336413  0.2220504797031250  0.5716169881895481   T   T   T
  0.5544201070801550  0.8891889773439151  0.5717594724047532   T   T   T
  0.1111110644819112  0.4444445377028443  0.5238095188135381   F   F   F
  0.1111110644819112  1.1111112043695111  0.5238095188135381   F   F   F
  0.7777777311485784  0.4444445377028443  0.5238095188135381   F   F   F
  0.7777777311485777  1.1111112043695111  0.5238095188135381   F   F   F
  0.3318883293521532  0.6671029456615845  0.6212571064137034   T   T   T
  0.9987257667349594  0.6667329878235667  0.6177483521920324   T   T   T
  0.3340501280440369  0.6654786857575371  0.6601548019351945   T   T   T
  0.3325538482575428  0.6669369740242452  0.6839438667544520   T   T   T
