Ag Pd 
 1.0000000000000000
     8.3348369443761747    0.0000000000000000    0.0000000000000005
     4.1674184721880891    7.2181805302308319    0.0000000000000005
     0.0000000000000000    0.0000000000000000   47.6375610737127033
 Ag  Pd 
   9  27
Selective dynamics
Direct
  0.6666666666666667  0.6666666666666667  0.4761904572003339   F   F   F
  0.4444444444444448  0.4444444444444445  0.5238095048193816   F   F   F
  0.4444444444444446  1.1111111111111112  0.5238095048193816   F   F   F
  0.9990811853376168  0.6673968543945078  0.6226208600752086   T   T   T
  0.3346503492091330  0.6677796784264438  0.6228543630161154   T   T   T
  0.2228551972780772  0.2219545150015348  0.5717657939089266   T   T   T
  0.2246996161292738  0.8855255544647320  0.5725167499879461   T   T   T
  0.8888479772269167  0.2222748189226540  0.5716747025610185   T   T   T
  0.8899076508754252  0.8869828004420172  0.5723825907074578   T   T   T
  0.3333333924137755  0.3333333924137756  0.4761904825205235   F   F   F
  0.3333333924137756  1.0000000590804423  0.4761904825205235   F   F   F
  1.0000000590804421  0.3333333924137756  0.4761904825205235   F   F   F
  1.0000000590804421  1.0000000590804423  0.4761904825205235   F   F   F
  0.6666665485057828  0.3333333924137756  0.4761904825205235   F   F   F
  0.6666665485057829  1.0000000590804423  0.4761904825205235   F   F   F
  0.3333333924137759  0.6666665485057824  0.4761904825205235   F   F   F
  1.0000000590804428  0.6666665485057824  0.4761904825205235   F   F   F
  0.5560732515971445  0.5547497635863153  0.5716606123783861   T   T   T
  0.1111111701915532  0.1111111701915532  0.5238095301395711   F   F   F
  0.1111111701915533  0.7777778368582199  0.5238095301395711   F   F   F
  0.7777778368582201  0.1111111701915532  0.5238095301395711   F   F   F
  0.7777778368582201  0.7777778368582199  0.5238095301395711   F   F   F
  0.3360379682408586  0.3315746563659356  0.6193779998684081   T   T   T
  0.3349326454244002  1.0028014012517714  0.6202089631586810   T   T   T
  0.9998588729258442  0.3338010485097426  0.6198348229220043   T   T   T
  0.9978496392503191  1.0063759044597789  0.6209486969206199   T   T   T
  0.2228828771105793  0.5541746855038037  0.5720733884677313   T   T   T
  0.8893676770623034  0.5557679723696695  0.5712757159790558   T   T   T
  0.4444443262835602  0.7777778368582199  0.5238095301395711   F   F   F
  0.6676602934696516  0.3338017215008680  0.6195646551156666   T   T   T
  0.6637820845061339  1.0027028216412401  0.6197701793163408   T   T   T
  0.5568591194141146  0.2222288905734681  0.5718525129778731   T   T   T
  0.5577266534603855  0.8867964376140828  0.5716698471529165   T   T   T
  0.1111111701915534  0.4444443262835603  0.5238095301395711   F   F   F
  0.7777778368582202  0.4444443262835603  0.5238095301395711   F   F   F
  0.6675767199881496  0.6673311641220205  0.6188798636355676   T   T   T
