Ag Pd 
 1.0000000000000000
     8.3348369443761747    0.0000000000000000    0.0000000000000005
     4.1674184721880891    7.2181805302308319    0.0000000000000005
     0.0000000000000000    0.0000000000000000   47.6375610737127033
 Ag  Pd 
   9  27
Selective dynamics
Direct
  0.6666666666666667  0.6666666666666667  0.4761904572003339   F   F   F
  0.4444444444444448  0.4444444444444445  0.5238095048193816   F   F   F
  0.4444444444444446  1.1111111111111112  0.5238095048193816   F   F   F
  0.9990824182973517  0.6673895984195823  0.6226259999496081   T   T   T
  0.3346404950642196  0.6677789820656450  0.6228573307051858   T   T   T
  0.2228413134543236  0.2219475266592668  0.5717647083960968   T   T   T
  0.2247031202402362  0.8855130987731488  0.5725185281014760   T   T   T
  0.8888496277464927  0.2222729587196106  0.5716725154262245   T   T   T
  0.8899110057499494  0.8869739177783005  0.5723841881768122   T   T   T
  0.3333333924137755  0.3333333924137756  0.4761904825205235   F   F   F
  0.3333333924137756  1.0000000590804423  0.4761904825205235   F   F   F
  1.0000000590804421  0.3333333924137756  0.4761904825205235   F   F   F
  1.0000000590804421  1.0000000590804423  0.4761904825205235   F   F   F
  0.6666665485057828  0.3333333924137756  0.4761904825205235   F   F   F
  0.6666665485057829  1.0000000590804423  0.4761904825205235   F   F   F
  0.3333333924137759  0.6666665485057824  0.4761904825205235   F   F   F
  1.0000000590804428  0.6666665485057824  0.4761904825205235   F   F   F
  0.5560239920362938  0.5547457549654218  0.5716442176472004   T   T   T
  0.1111111701915532  0.1111111701915532  0.5238095301395711   F   F   F
  0.1111111701915533  0.7777778368582199  0.5238095301395711   F   F   F
  0.7777778368582201  0.1111111701915532  0.5238095301395711   F   F   F
  0.7777778368582201  0.7777778368582199  0.5238095301395711   F   F   F
  0.3360453140160118  0.3315561331996386  0.6193623126726479   T   T   T
  0.3349787499790422  1.0027486046621772  0.6202074397752733   T   T   T
  0.9998439690167813  0.3338055600613213  0.6198268650805635   T   T   T
  0.9978127088638755  1.0064105836671324  0.6209234418471369   T   T   T
  0.2228271388824498  0.5541898617323989  0.5720681968464565   T   T   T
  0.8893714280719996  0.5557660478754125  0.5712551112371388   T   T   T
  0.4444443262835602  0.7777778368582199  0.5238095301395711   F   F   F
  0.6676383136169921  0.3338042051120809  0.6195540519994841   T   T   T
  0.6637451529803727  1.0026536386080478  0.6197633326183580   T   T   T
  0.5568820613185074  0.2221988467582169  0.5718367684186426   T   T   T
  0.5576901667643462  0.8868222119734228  0.5716483684816817   T   T   T
  0.1111111701915534  0.4444443262835603  0.5238095301395711   F   F   F
  0.7777778368582202  0.4444443262835603  0.5238095301395711   F   F   F
  0.6675982101926058  0.6672695463790840  0.6188452978903576   T   T   T
