Ag Pd  C  O 
 1.0000000000000000
     8.4012246744318553    0.0000000000000000    0.0000000000000006
     0.0000000000000016    9.7556249397631500    0.0778334351619916
     0.0000000000000000    0.0000000000000000   41.2743430770740716
 Ag  Pd  C   O  
  24  24   1   1
Selective dynamics
Direct
  0.1648065075653715  0.2508562328919304  0.5849627391006554   T   T   T
  0.1660788244081238  0.7511377438964020  0.5854874233184242   T   T   T
  0.4999682705509266  0.2478243628533967  0.5855754185839650   T   T   T
  0.4999868716177566  0.7509403038221384  0.5855120459107220   T   T   T
  0.8351268479202000  0.2508543994812595  0.5849653646900780   T   T   T
  0.8338936249399331  0.7511379210639995  0.5854882273388662   T   T   T
  0.1667941188212662  0.4169937520503552  0.5280156042810176   T   T   T
  0.1668341499554102  0.9169824845732516  0.5279620435791320   T   T   T
  0.4999910857422423  0.4170227099607260  0.5282157936564231   T   T   T
  0.4999950400118463  0.9170746660325444  0.5280396542397784   T   T   T
  0.8331855600883246  0.4169918312840778  0.5280158651687910   T   T   T
  0.8331570396629111  0.9169809995630124  0.5279619724539121   T   T   T
  0.1666664815226225  0.0833334535709418  0.4722222217898217   F   F   F
  0.1666664815226226  0.5833334535709418  0.4722222217898217   F   F   F
  0.4999998148559556  0.0833334535709418  0.4722222217898217   F   F   F
  0.4999998148559556  0.5833334535709418  0.4722222217898217   F   F   F
  0.8333331481892892  0.0833334535709418  0.4722222217898217   F   F   F
  0.8333331481892892  0.5833334535709418  0.4722222217898217   F   F   F
  0.1666664815226225  0.2500001202376085  0.4166666662342661   F   F   F
  0.1666664815226226  0.7500001202376085  0.4166666662342661   F   F   F
  0.4999998148559556  0.2500001202376085  0.4166666662342661   F   F   F
  0.4999998148559556  0.7500001202376085  0.4166666662342661   F   F   F
  0.8333331481892892  0.2500001202376085  0.4166666662342661   F   F   F
  0.8333331481892892  0.7500001202376085  0.4166666662342661   F   F   F
  0.3323083768342996  0.0000660723961109  0.5832657222626252   T   T   T
  0.3322472217305741  0.5040624225333160  0.5833661488964854   T   T   T
  0.6676575727542408  0.0000666007150908  0.5832652103705741   T   T   T
  0.6677199352267896  0.5040623176185717  0.5833659845471129   T   T   T
  0.9999828625994043  0.0022834268802076  0.5832226264919435   T   T   T
  0.9999820273526092  0.5031899142458824  0.5831987169765330   T   T   T
  0.3340592048255706  0.1689255733763223  0.5283423320370171   T   T   T
  0.3334977043715936  0.6681597797612036  0.5281251277138945   T   T   T
  0.6659190441524402  0.1689239975682595  0.5283422924428823   T   T   T
  0.6664833914975965  0.6681597275337994  0.5281251041390663   T   T   T
  0.9999872139990952  0.1678181209922569  0.5278484628604543   T   T   T
  0.9999902998511333  0.6683585893016221  0.5280399051262687   T   T   T
  0.3333331481892897  0.3333334587597487  0.4722222226546229   F   F   F
  0.3333331481892897  0.8333334587597487  0.4722222226546229   F   F   F
  0.6666664815226231  0.3333334587597487  0.4722222226546229   F   F   F
  0.6666664815226231  0.8333334587597487  0.4722222226546229   F   F   F
  0.9999998148559561  0.3333334587597487  0.4722222226546229   F   F   F
  0.9999998148559563  0.8333334587597487  0.4722222226546229   F   F   F
  0.3333331481892892  0.0000001254264155  0.4166666670990671   F   F   F
  0.3333331481892892  0.5000001254264155  0.4166666670990673   F   F   F
  0.6666664815226225  0.0000001254264155  0.4166666670990671   F   F   F
  0.6666664815226224  0.5000001254264155  0.4166666670990673   F   F   F
  0.9999998148559557  0.0000001254264155  0.4166666670990671   F   F   F
  0.9999998148559557  0.5000001254264155  0.4166666670990673   F   F   F
  0.4999894994847645  0.2758797052985553  0.6362250491251024   T   T   T
  0.5000540943949782  0.2426687692546187  0.6630399553521669   T   T   T
