Ag Pd 
 1.0000000000000000
     8.5013114179517117    0.0000000000000000    0.0000000000000005
     4.2506557089758541    7.3623516534288900    0.0000000000000005
     0.0000000000000000    0.0000000000000000   48.5890419431158733
 Ag  Pd 
  26  10
Selective dynamics
Direct
  0.6666666666666671  0.6666666666666666  0.4761904911784334   F   F   F
  0.3333332867041333  0.3333332867041335  0.4761904711944905   F   F   F
  0.3333332867041333  0.9999999533708002  0.4761904711944905   F   F   F
  0.9999999533707997  0.3333332867041335  0.4761904711944905   F   F   F
  0.9999999533707999  0.9999999533708002  0.4761904711944905   F   F   F
  0.6666667599250664  0.3333332867041335  0.4761904711944905   F   F   F
  0.6666667599250664  0.9999999533708002  0.4761904711944905   F   F   F
  0.4444444444444445  0.4444444444444445  0.5238095387974809   F   F   F
  0.6665273214648416  0.6673582713580417  0.6203609624271409   T   T   T
  0.2238799681510566  0.2214727452875562  0.5713911940214587   T   T   T
  0.2219325351848386  0.8909113107484512  0.5714802641891262   T   T   T
  0.8876568651480445  0.2219982490306424  0.5711036821641563   T   T   T
  0.8852454024043407  0.8921455997051878  0.5713760245024888   T   T   T
  0.5568999889828873  0.5553819914989934  0.5714840250336227   T   T   T
  0.1111110644819112  0.7777777311485777  0.5238095188135381   F   F   F
  0.7777777311485781  0.7777777311485777  0.5238095188135381   F   F   F
  0.3320202656475263  0.3369930791170865  0.6202850667327805   T   T   T
  0.3333174195103019  0.9981798521398754  0.6203909579935257   T   T   T
  0.9997758000683039  0.3351102702163751  0.6208607695888435   T   T   T
  1.0017734141162191  0.9963890697363985  0.6210733636346670   T   T   T
  0.2230920765796566  0.5532098956300455  0.5711889434820413   T   T   T
  0.8879114218014691  0.5555642427286306  0.5711965369432993   T   T   T
  0.4444445377028442  0.1111110644819113  0.5238095188135381   F   F   F
  0.4444445377028442  0.7777777311485780  0.5238095188135381   F   F   F
  0.6650603483697959  0.3343670705777660  0.6201676881513640   T   T   T
  0.6673236962134479  0.9989543641862665  0.6197908615847972   T   T   T
  0.3333332867041338  0.6666667599250664  0.4761904711944905   F   F   F
  0.9999999533708005  0.6666667599250664  0.4761904711944905   F   F   F
  0.5564994321576801  0.2211090066196403  0.5716610598171835   T   T   T
  0.5550375620759063  0.8894676335679360  0.5718374460020201   T   T   T
  0.1111110644819112  0.4444445377028443  0.5238095188135381   F   F   F
  0.1111110644819112  1.1111112043695111  0.5238095188135381   F   F   F
  0.7777777311485784  0.4444445377028443  0.5238095188135381   F   F   F
  0.7777777311485777  1.1111112043695111  0.5238095188135381   F   F   F
  0.3312887861725495  0.6671680664548117  0.6180791828285243   T   T   T
  1.0014651580353291  0.6662502824752906  0.6180166725169799   T   T   T
