Ag Pd 
 1.0000000000000000
     8.4012246744318553    0.0000000000000000    0.0000000000000006
     0.0000000000000016    9.7556249397631500    0.0778334351619916
     0.0000000000000000    0.0000000000000000   41.2743430770740716
 Ag  Pd 
  24  24
Selective dynamics
Direct
  0.1666655711245853  0.2501720548327732  0.5851910972671134   T   T   T
  0.1666656501208151  0.7501730319955370  0.5851863515414681   T   T   T
  0.4999989446938110  0.2501720829687407  0.5851910673847233   T   T   T
  0.4999989248094454  0.7501730658188924  0.5851863539870611   T   T   T
  0.8333323531370728  0.2501719939112584  0.5851910376262588   T   T   T
  0.8333322685294874  0.7501730526688298  0.5851863118989591   T   T   T
  0.1666713686105914  0.4158191147602171  0.5278977523887669   T   T   T
  0.1666713679144790  0.9158178543890069  0.5278960230980668   T   T   T
  0.5000045842257997  0.4158192271031979  0.5278977469649907   T   T   T
  0.5000045753518523  0.9158178842634606  0.5278959999929920   T   T   T
  0.8333379746487286  0.4158192565558044  0.5278977343149867   T   T   T
  0.8333379591693549  0.9158179122889307  0.5278960006126576   T   T   T
  0.1666664815226225  0.0833334535709418  0.4722222217898217   F   F   F
  0.1666664815226226  0.5833334535709418  0.4722222217898217   F   F   F
  0.4999998148559556  0.0833334535709418  0.4722222217898217   F   F   F
  0.4999998148559556  0.5833334535709418  0.4722222217898217   F   F   F
  0.8333331481892892  0.0833334535709418  0.4722222217898217   F   F   F
  0.8333331481892892  0.5833334535709418  0.4722222217898217   F   F   F
  0.1666664815226225  0.2500001202376085  0.4166666662342661   F   F   F
  0.1666664815226226  0.7500001202376085  0.4166666662342661   F   F   F
  0.4999998148559556  0.2500001202376085  0.4166666662342661   F   F   F
  0.4999998148559556  0.7500001202376085  0.4166666662342661   F   F   F
  0.8333331481892892  0.2500001202376085  0.4166666662342661   F   F   F
  0.8333331481892892  0.7500001202376085  0.4166666662342661   F   F   F
  0.3333360805625534  0.0017699763923360  0.5829680579390275   T   T   T
  0.3333361179537547  0.5017752726611413  0.5829678029576422   T   T   T
  0.6666693983591051  0.0017699794414304  0.5829680212883512   T   T   T
  0.6666694307719498  0.5017753061702565  0.5829677727164864   T   T   T
  1.0000028119858326  0.0017699814805184  0.5829680273908809   T   T   T
  1.0000028257651810  0.5017752819004192  0.5829677804906509   T   T   T
  0.3333353595248952  0.1674546507271253  0.5278570394293628   T   T   T
  0.3333354246966139  0.6674571251605450  0.5278542492963072   T   T   T
  0.6666687061733002  0.1674547496261178  0.5278570282686048   T   T   T
  0.6666687576610727  0.6674571924520888  0.5278542289008442   T   T   T
  1.0000021057562305  0.1674547020645829  0.5278570342142112   T   T   T
  1.0000021652412798  0.6674571823577999  0.5278542393579049   T   T   T
  0.3333331481892897  0.3333334587597487  0.4722222226546229   F   F   F
  0.3333331481892897  0.8333334587597487  0.4722222226546229   F   F   F
  0.6666664815226231  0.3333334587597487  0.4722222226546229   F   F   F
  0.6666664815226231  0.8333334587597487  0.4722222226546229   F   F   F
  0.9999998148559561  0.3333334587597487  0.4722222226546229   F   F   F
  0.9999998148559563  0.8333334587597487  0.4722222226546229   F   F   F
  0.3333331481892892  0.0000001254264155  0.4166666670990671   F   F   F
  0.3333331481892892  0.5000001254264155  0.4166666670990673   F   F   F
  0.6666664815226225  0.0000001254264155  0.4166666670990671   F   F   F
  0.6666664815226224  0.5000001254264155  0.4166666670990673   F   F   F
  0.9999998148559557  0.0000001254264155  0.4166666670990671   F   F   F
  0.9999998148559557  0.5000001254264155  0.4166666670990673   F   F   F
