Ag Pd 
 1.0000000000000000
     8.4012246744318553    0.0000000000000000    0.0000000000000006
     0.0000000000000016    9.7556249397631500    0.0778334351619916
     0.0000000000000000    0.0000000000000000   41.2743430770740716
 Ag  Pd 
  24  24
Selective dynamics
Direct
  0.1666655516200120  0.2500994183092007  0.5851862269050865   T   T   T
  0.1666656512351241  0.7501023342452326  0.5851809173525279   T   T   T
  0.4999989386879356  0.2500994426047231  0.5851862037205923   T   T   T
  0.4999989128977788  0.7501023828468500  0.5851809245597965   T   T   T
  0.8333323727415630  0.2500993326697464  0.5851861684138181   T   T   T
  0.8333322664743283  0.7501023605152360  0.5851808741916290   T   T   T
  0.1666711453715000  0.4157934945047776  0.5279118877085875   T   T   T
  0.1666711461254531  0.9157907488374626  0.5279099961361986   T   T   T
  0.5000043371839279  0.4157936252739426  0.5279118845302256   T   T   T
  0.5000043314687052  0.9157907920771631  0.5279099676229770   T   T   T
  0.8333377334384133  0.4157936561864375  0.5279118657897361   T   T   T
  0.8333377175293151  0.9157908086301058  0.5279099690828917   T   T   T
  0.1666664815226225  0.0833334535709418  0.4722222217898217   F   F   F
  0.1666664815226226  0.5833334535709418  0.4722222217898217   F   F   F
  0.4999998148559556  0.0833334535709418  0.4722222217898217   F   F   F
  0.4999998148559556  0.5833334535709418  0.4722222217898217   F   F   F
  0.8333331481892892  0.0833334535709418  0.4722222217898217   F   F   F
  0.8333331481892892  0.5833334535709418  0.4722222217898217   F   F   F
  0.1666664815226225  0.2500001202376085  0.4166666662342661   F   F   F
  0.1666664815226226  0.7500001202376085  0.4166666662342661   F   F   F
  0.4999998148559556  0.2500001202376085  0.4166666662342661   F   F   F
  0.4999998148559556  0.7500001202376085  0.4166666662342661   F   F   F
  0.8333331481892892  0.2500001202376085  0.4166666662342661   F   F   F
  0.8333331481892892  0.7500001202376085  0.4166666662342661   F   F   F
  0.3333357578187497  0.0018042255776973  0.5829276312528019   T   T   T
  0.3333358075824324  0.5018100543263383  0.5829273045807538   T   T   T
  0.6666690580748084  0.0018042297052709  0.5829275936791199   T   T   T
  0.6666690989897371  0.5018100914170501  0.5829272762235665   T   T   T
  1.0000024857023222  0.0018042374222774  0.5829275995316254   T   T   T
  1.0000025203823166  0.5018100585491152  0.5829272779262035   T   T   T
  0.3333355450202140  0.1674002062281610  0.5278439001179496   T   T   T
  0.3333356266275132  0.6674042153777088  0.5278406989895311   T   T   T
  0.6666688995296157  0.1674003146921188  0.5278438920825177   T   T   T
  0.6666689244295871  0.6674042911224526  0.5278406770586322   T   T   T
  1.0000022924592704  0.1674002758063293  0.5278438987506433   T   T   T
  1.0000023545382786  0.6674042753819973  0.5278406866000461   T   T   T
  0.3333331481892897  0.3333334587597487  0.4722222226546229   F   F   F
  0.3333331481892897  0.8333334587597487  0.4722222226546229   F   F   F
  0.6666664815226231  0.3333334587597487  0.4722222226546229   F   F   F
  0.6666664815226231  0.8333334587597487  0.4722222226546229   F   F   F
  0.9999998148559561  0.3333334587597487  0.4722222226546229   F   F   F
  0.9999998148559563  0.8333334587597487  0.4722222226546229   F   F   F
  0.3333331481892892  0.0000001254264155  0.4166666670990671   F   F   F
  0.3333331481892892  0.5000001254264155  0.4166666670990673   F   F   F
  0.6666664815226225  0.0000001254264155  0.4166666670990671   F   F   F
  0.6666664815226224  0.5000001254264155  0.4166666670990673   F   F   F
  0.9999998148559557  0.0000001254264155  0.4166666670990671   F   F   F
  0.9999998148559557  0.5000001254264155  0.4166666670990673   F   F   F
