Ag  H  O 
 1.0000000000000000
     8.5983832630900725    0.0000000000000000    0.3096632092506426
     4.2936155075093092    7.4496349315025547    0.3096632092506426
     0.0000000000000000    0.0000000000000000   39.8433329235828140
 Ag  H   O  
  36   1   1
Selective dynamics
Direct
  0.1563775221396143  0.1564624753569253  0.5894379906439723   T   T   T
  0.1537589043292959  0.4897450260785498  0.5886337652453326   T   T   T
  0.1542596393873085  0.8256184148317768  0.5888270548430740   T   T   T
  0.4895301552451595  0.1545381470500213  0.5888635715520989   T   T   T
  0.4873476960139513  0.4896625468687525  0.5912599074667731   T   T   T
  0.4898366403176734  0.8242279059027545  0.5890816261515298   T   T   T
  0.8242793084810353  0.1558613904401543  0.5890842079885024   T   T   T
  0.8244341949747926  0.4897408262219582  0.5887849782280545   T   T   T
  0.8229826003406142  0.8233033977255376  0.5892890942553056   T   T   T
  0.2745496542726253  0.2743683080042918  0.5292946809522278   T   T   T
  0.2761459770854879  0.6068513940024038  0.5300304618964290   T   T   T
  0.2746399755199234  0.9409627799507629  0.5293781729057764   T   T   T
  0.6066561826515054  0.2763950204585537  0.5301020570635292   T   T   T
  0.6065275235838334  0.6067398289489321  0.5300506030310707   T   T   T
  0.6082204533090513  0.9407691723512321  0.5292213486441837   T   T   T
  0.9410797560937922  0.2743749279605951  0.5293318489472197   T   T   T
  0.9406375820782336  0.6084098611114370  0.5290744083885839   T   T   T
  0.9406476394457640  0.9411808670552629  0.5292282597367867   T   T   T
  0.0588233949072055  0.0588233949072054  0.4705882352941176   F   F   F
  0.0588233949072055  0.3921567282405387  0.4705882352941173   F   F   F
  0.0588233949072055  0.7254900615738720  0.4705882352941176   F   F   F
  0.3921567282405388  0.0588233949072054  0.4705882352941176   F   F   F
  0.3921567282405387  0.3921567282405387  0.4705882352941176   F   F   F
  0.3921567282405388  0.7254900615738720  0.4705882352941173   F   F   F
  0.7254900615738720  0.0588233949072054  0.4705882352941176   F   F   F
  0.7254900615738721  0.3921567282405387  0.4705882352941173   F   F   F
  0.7254900615738720  0.7254900615738720  0.4705882352941176   F   F   F
  0.1764704537307346  0.1764704537307344  0.4117647058823530   F   F   F
  0.1764704537307346  0.5098037870640678  0.4117647058823530   F   F   F
  0.1764704537307346  0.8431371203974013  0.4117647058823529   F   F   F
  0.5098037870640679  0.1764704537307344  0.4117647058823530   F   F   F
  0.5098037870640678  0.5098037870640678  0.4117647058823530   F   F   F
  0.5098037870640678  0.8431371203974013  0.4117647058823530   F   F   F
  0.8431371203974012  0.1764704537307344  0.4117647058823530   F   F   F
  0.8431371203974014  0.5098037870640678  0.4117647058823530   F   F   F
  0.8431371203974007  0.8431371203974013  0.4117647058823529   F   F   F
  0.5901667710848109  0.4891788999846253  0.6523007817779675   T   T   T
  0.4783188824874485  0.4897486172880895  0.6480106996376398   T   T   T
