Ag  H Pd  O 
 1.0000000000000000
     8.3348369443761747    0.0000000000000000    0.0000000000000005
     4.1674184721880891    7.2181805302308319    0.0000000000000005
     0.0000000000000000    0.0000000000000000   47.6375610737127033
 Ag  H   Pd  O  
   9   1  27   1
Selective dynamics
Direct
  0.6666666666666667  0.6666666666666667  0.4761904572003339   F   F   F
  0.4444444444444448  0.4444444444444445  0.5238095048193816   F   F   F
  0.4444444444444446  1.1111111111111112  0.5238095048193816   F   F   F
  0.9986280414540165  0.6700529112617589  0.6219069147486884   T   T   T
  0.3312853230257644  0.6702155312189525  0.6220559864627576   T   T   T
  0.2232214979788099  0.2230710697191275  0.5717311397377701   T   T   T
  0.2247550818072848  0.8870156008837728  0.5723373848281051   T   T   T
  0.8891401071692712  0.2230830706617949  0.5716486626916147   T   T   T
  0.8897082805369056  0.8881960415955343  0.5722466289761792   T   T   T
  0.7644552394837784  0.6688680768801628  0.6702338941622902   T   T   T
  0.3333333924137755  0.3333333924137756  0.4761904825205235   F   F   F
  0.3333333924137756  1.0000000590804423  0.4761904825205235   F   F   F
  1.0000000590804421  0.3333333924137756  0.4761904825205235   F   F   F
  1.0000000590804421  1.0000000590804423  0.4761904825205235   F   F   F
  0.6666665485057828  0.3333333924137756  0.4761904825205235   F   F   F
  0.6666665485057829  1.0000000590804423  0.4761904825205235   F   F   F
  0.3333333924137759  0.6666665485057824  0.4761904825205235   F   F   F
  1.0000000590804428  0.6666665485057824  0.4761904825205235   F   F   F
  0.5570644061498036  0.5557975684573447  0.5718886781072886   T   T   T
  0.1111111701915532  0.1111111701915532  0.5238095301395711   F   F   F
  0.1111111701915533  0.7777778368582199  0.5238095301395711   F   F   F
  0.7777778368582201  0.1111111701915532  0.5238095301395711   F   F   F
  0.7777778368582201  0.7777778368582199  0.5238095301395711   F   F   F
  0.3351058003336317  0.3342102402935980  0.6194366930739819   T   T   T
  0.3319911808630481  1.0072709889917206  0.6201079654671107   T   T   T
  0.9994241589768911  0.3361913013706321  0.6197144596131703   T   T   T
  0.9967124624260915  1.0091066250020153  0.6207049823185203   T   T   T
  0.2230515985769959  0.5548963642589767  0.5718617801317514   T   T   T
  0.8879739970688386  0.5569007080216053  0.5716535914322282   T   T   T
  0.4444443262835602  0.7777778368582199  0.5238095301395711   F   F   F
  0.6661760446069155  0.3355686204252553  0.6193074315237029   T   T   T
  0.6626210012947721  1.0066926765248929  0.6197350591763854   T   T   T
  0.5566709271021779  0.2230714090310285  0.5718822635141847   T   T   T
  0.5586741627952805  0.8860172919270758  0.5723472564478562   T   T   T
  0.1111111701915534  0.4444443262835603  0.5238095301395711   F   F   F
  0.7777778368582202  0.4444443262835603  0.5238095301395711   F   F   F
  0.6631564067387765  0.6718371492359890  0.6212451239965345   T   T   T
  0.6575773398245157  0.6580624634857403  0.6641255230742993   T   T   T
