Ag  H Pd  O 
 1.0000000000000000
     8.3348369443761747    0.0000000000000000    0.0000000000000005
     4.1674184721880891    7.2181805302308319    0.0000000000000005
     0.0000000000000000    0.0000000000000000   47.6375610737127033
 Ag  H   Pd  O  
   9   1  27   1
Selective dynamics
Direct
  0.6666666666666667  0.6666666666666667  0.4761904572003339   F   F   F
  0.4444444444444448  0.4444444444444445  0.5238095048193816   F   F   F
  0.4444444444444446  1.1111111111111112  0.5238095048193816   F   F   F
  0.9999211991089277  0.6685915329604333  0.6219365921597593   T   T   T
  0.3327517045306974  0.6686563405773993  0.6222292169645441   T   T   T
  0.2235629979558780  0.2217619317711829  0.5716952227715718   T   T   T
  0.2253033944244297  0.8855570898507023  0.5723545620738426   T   T   T
  0.8894930274515856  0.2219116894553015  0.5716133900039087   T   T   T
  0.8901260159132129  0.8868753599002770  0.5721969822061719   T   T   T
  0.7578847511338249  0.6680033402534671  0.6705245015796106   T   T   T
  0.3333333924137755  0.3333333924137756  0.4761904825205235   F   F   F
  0.3333333924137756  1.0000000590804423  0.4761904825205235   F   F   F
  1.0000000590804421  0.3333333924137756  0.4761904825205235   F   F   F
  1.0000000590804421  1.0000000590804423  0.4761904825205235   F   F   F
  0.6666665485057828  0.3333333924137756  0.4761904825205235   F   F   F
  0.6666665485057829  1.0000000590804423  0.4761904825205235   F   F   F
  0.3333333924137759  0.6666665485057824  0.4761904825205235   F   F   F
  1.0000000590804428  0.6666665485057824  0.4761904825205235   F   F   F
  0.5576101377859634  0.5544499993472841  0.5718330711000172   T   T   T
  0.1111111701915532  0.1111111701915532  0.5238095301395711   F   F   F
  0.1111111701915533  0.7777778368582199  0.5238095301395711   F   F   F
  0.7777778368582201  0.1111111701915532  0.5238095301395711   F   F   F
  0.7777778368582201  0.7777778368582199  0.5238095301395711   F   F   F
  0.3363656396312790  0.3326369921581316  0.6192420212957999   T   T   T
  0.3331724263481917  1.0058067039776171  0.6200673279406236   T   T   T
  1.0000926974262958  0.3353317387669673  0.6196382036996996   T   T   T
  0.9978352867267365  1.0075270429030023  0.6204636097119288   T   T   T
  0.2236196123261089  0.5535746186572276  0.5718762634281276   T   T   T
  0.8887740142670220  0.5552805020326528  0.5715961009363610   T   T   T
  0.4444443262835602  0.7777778368582199  0.5238095301395711   F   F   F
  0.6671369518311751  0.3346540968233065  0.6193278343992887   T   T   T
  0.6637688849808004  1.0053229949665521  0.6196519961435945   T   T   T
  0.5571867431536480  0.2220239394115877  0.5718641824215291   T   T   T
  0.5589773602429080  0.8849194868791220  0.5722251180438986   T   T   T
  0.1111111701915534  0.4444443262835603  0.5238095301395711   F   F   F
  0.7777778368582202  0.4444443262835603  0.5238095301395711   F   F   F
  0.6648817559838489  0.6718978041720050  0.6208223709439956   T   T   T
  0.6523985300420373  0.6608617314462593  0.6626159938874751   T   T   T
