Ag26 H1 Pd10 O1
1.0
   8.5013114179517117    0.0000000000000000    0.0000000000000005
   4.2506557089758541    7.3623516534288900    0.0000000000000005
   0.0000000000000000    0.0000000000000000   48.5890419431158733
Ag H Pd O
26 1 10 1
Selective dynamics
direct
   0.6666666666666670    0.6666666666666666    0.4761904911784334 F F F Ag
   0.3333332867041333    0.3333332867041335    0.4761904711944905 F F F Ag
   0.3333332867041333    0.9999999533708002    0.4761904711944905 F F F Ag
   0.9999999533707997    0.3333332867041335    0.4761904711944905 F F F Ag
   0.9999999533707999    0.9999999533708002    0.4761904711944905 F F F Ag
   0.6666667599250664    0.3333332867041335    0.4761904711944905 F F F Ag
   0.6666667599250664    0.9999999533708002    0.4761904711944905 F F F Ag
   0.4444444444444445    0.4444444444444445    0.5238095387974809 F F F Ag
   0.6666666666666670    0.6666666666666666    0.6190476340355762 T T T Ag
   0.2222222222222223    0.2222222222222223    0.5714285864165285 T T T Ag
   0.2222222222222223    0.8888888888888888    0.5714285864165285 T T T Ag
   0.8888888888888890    0.2222222222222223    0.5714285864165285 T T T Ag
   0.8888888888888892    0.8888888888888888    0.5714285864165285 T T T Ag
   0.5555555089263555    0.5555555089263557    0.5714285664325858 T T T Ag
   0.1111110644819112    0.7777777311485777    0.5238095188135381 F F F Ag
   0.7777777311485781    0.7777777311485777    0.5238095188135381 F F F Ag
   0.3333332867041333    0.3333332867041335    0.6190476140516334 T T T Ag
   0.3333332867041333    0.9999999533708002    0.6190476140516334 T T T Ag
   0.9999999533707997    0.3333332867041335    0.6190476140516334 T T T Ag
   0.9999999533707999    0.9999999533708002    0.6190476140516334 T T T Ag
   0.2222223154806221    0.5555555089263557    0.5714285664325858 T T T Ag
   0.8888889821472885    0.5555555089263557    0.5714285664325858 T T T Ag
   0.4444445377028442    0.1111110644819113    0.5238095188135381 F F F Ag
   0.4444445377028442    0.7777777311485780    0.5238095188135381 F F F Ag
   0.6666667599250664    0.3333332867041335    0.6190476140516334 T T T Ag
   0.6666667599250664    0.9999999533708002    0.6190476140516334 T T T Ag
   0.4156702377098965    0.6666700000000000    0.6746180865491942 T T T H
   0.3333332867041338    0.6666667599250664    0.4761904711944905 F F F Pd
   0.9999999533708005    0.6666667599250664    0.4761904711944905 F F F Pd
   0.5555555089263561    0.2222223154806220    0.5714285664325858 T T T Pd
   0.5555555089263559    0.8888889821472887    0.5714285664325858 T T T Pd
   0.1111110644819112    0.4444445377028443    0.5238095188135381 F F F Pd
   0.1111110644819112    1.1111112043695111    0.5238095188135381 F F F Pd
   0.7777777311485781    0.4444445377028443    0.5238095188135381 F F F Pd
   0.7777777311485777    1.1111112043695111    0.5238095188135381 F F F Pd
   0.3333332867041338    0.6666667599250664    0.6190476140516334 T T T Pd
   0.9999999533708005    0.6666667599250664    0.6190476140516334 T T T Pd
   0.3333300000000001    0.6666700000000000    0.6602115460000000 T T T O
