 H Pd  C  O 
 1.0000000000000000
     8.2582115393440390    0.0000000000000000    0.0000000000000006
    -4.1291057696720213    7.1518209828977302    0.0000000000000006
     0.0000000000000000    0.0000000000000000   40.4568089187138042
 H   Pd  C   O  
   6  36   1   7
Selective dynamics
Direct
  0.3684138194677203  0.8049896903690670  0.6372781670408015   T   T   T
  0.1540119271504283  0.0070872708857004  0.6373313055459946   T   T   T
  0.0179117465900933  0.2019663414340590  0.6366705028911670   T   T   T
  0.7772570259843967  0.4161303975136135  0.6388644164495847   T   T   T
  0.0999556414458240  0.6184093377043054  0.6376212240871844   T   T   T
  0.4751081487699658  0.1233843234508425  0.6381296938058899   T   T   T
  0.0000003242213467  0.0000001621106736  0.4166666666666669   F   F   F
  0.0000003242213467  0.3333334954440070  0.4166666666666669   F   F   F
  0.0000003242213466  0.6666668287773403  0.4166666666666669   F   F   F
  0.3333336575546800  0.0000001621106736  0.4166666666666669   F   F   F
  0.3333336575546800  0.3333334954440070  0.4166666666666669   F   F   F
  0.3333336575546799  0.6666668287773403  0.4166666666666669   F   F   F
  0.6666669908880133  0.0000001621106736  0.4166666666666669   F   F   F
  0.6666669908880132  0.3333334954440070  0.4166666666666669   F   F   F
  0.6666669908880132  0.6666668287773403  0.4166666666666669   F   F   F
  0.1111114353324573  0.2222223843328956  0.4722222222222223   F   F   F
  0.1111114353324573  0.5555557176662289  0.4722222222222223   F   F   F
  0.1111114353324574  0.8888890509995623  0.4722222222222223   F   F   F
  0.4444447686657906  0.2222223843328956  0.4722222222222223   F   F   F
  0.4444447686657906  0.5555557176662289  0.4722222222222223   F   F   F
  0.4444447686657906  0.8888890509995623  0.4722222222222223   F   F   F
  0.7777781019991239  0.2222223843328956  0.4722222222222223   F   F   F
  0.7777781019991239  0.5555557176662289  0.4722222222222223   F   F   F
  0.7777781019991239  0.8888890509995623  0.4722222222222223   F   F   F
  0.2225313321188019  0.1092001042265319  0.5276362676203449   T   T   T
  0.2208630043314121  0.4428929908645364  0.5279386093256058   T   T   T
  0.2208199874053071  0.7760537038897262  0.5279666737737948   T   T   T
  0.5561581670183180  0.1098323811005781  0.5274623568660546   T   T   T
  0.5555968489927244  0.4448783384924512  0.5279202755455978   T   T   T
  0.5545613527456844  0.7755875383367731  0.5278691875944510   T   T   T
  0.8888327594040630  0.1083812499121579  0.5276821872453854   T   T   T
  0.8881352550490593  0.4428470153715776  0.5279807154417694   T   T   T
  0.8878149282875262  0.7758815621550412  0.5285369095230875   T   T   T
  0.0022769327930479 -0.0063732763341328  0.5840228595263230   T   T   T
 -0.0009401338426722  0.3262999154668338  0.5834577026271692   T   T   T
 -0.0021234771816076  0.6582992031612011  0.5844436113086331   T   T   T
  0.3347335378619811 -0.0054869633690494  0.5835088268196432   T   T   T
  0.3316638903718385  0.3280029645064371  0.5833359717892367   T   T   T
  0.3323159456115857  0.6608136223071621  0.5840221953336590   T   T   T
  0.6671847127874095 -0.0022965662172099  0.5835295305346532   T   T   T
  0.6627519322223087  0.3286815639601773  0.5833413344380163   T   T   T
  0.6651783039094672  0.6648644502462459  0.5858066328908456   T   T   T
  0.6631895375133264  0.6782073172476254  0.6327524537435377   T   T   T
  0.6726234932163399  0.6891294567889865  0.6610200774678472   T   T   T
  0.3376655318647373  0.6714246773908046  0.6330270211159672   T   T   T
  0.0435122351436299  0.0243917254120622  0.6325681165560453   T   T   T
 -0.0230833087979848  0.2964613415142806  0.6313591758922733   T   T   T
  0.6430977746588206  0.3330793948584425  0.6322694454632507   T   T   T
 -0.0081513534126204  0.6388521611079310  0.6330409610550772   T   T   T
  0.3578841797148318 -0.0001759961935735  0.6332706378389058   T   T   T
