Ag Pd  C  O 
 1.0000000000000000
     8.4012246744318553    0.0000000000000000    0.0000000000000006
     0.0000000000000016    9.7556249397631500    0.0778334351619916
     0.0000000000000000    0.0000000000000000   41.2743430770740716
 Ag  Pd  C   O  
  24  24   1   1
Selective dynamics
Direct
  0.1666714805245947  0.2498255529222911  0.5853766257733837   T   T   T
  0.1666674303586291  0.7510295627318173  0.5852377819232834   T   T   T
  0.4989616718637057  0.2488901826784903  0.5853041424991048   T   T   T
  0.4983499202486587  0.7524833374993999  0.5850387235538972   T   T   T
  0.8343810107932701  0.2488894206320472  0.5853044832451889   T   T   T
  0.8349850344138189  0.7524838518387432  0.5850398487178259   T   T   T
  0.1666619343237486  0.4159272840788675  0.5279844487303627   T   T   T
  0.1666710082344892  0.9157255572367516  0.5278493251803974   T   T   T
  0.5009931012323039  0.4163982514367017  0.5283644949119959   T   T   T
  0.5003354662754340  0.9155579355947044  0.5278293514469559   T   T   T
  0.8323338474789217  0.4163978841922600  0.5283638131388380   T   T   T
  0.8330061075132564  0.9155576890706617  0.5278293837756309   T   T   T
  0.1666664815226225  0.0833334535709418  0.4722222217898217   F   F   F
  0.1666664815226226  0.5833334535709418  0.4722222217898217   F   F   F
  0.4999998148559556  0.0833334535709418  0.4722222217898217   F   F   F
  0.4999998148559556  0.5833334535709418  0.4722222217898217   F   F   F
  0.8333331481892892  0.0833334535709418  0.4722222217898217   F   F   F
  0.8333331481892892  0.5833334535709418  0.4722222217898217   F   F   F
  0.1666664815226225  0.2500001202376085  0.4166666662342661   F   F   F
  0.1666664815226226  0.7500001202376085  0.4166666662342661   F   F   F
  0.4999998148559556  0.2500001202376085  0.4166666662342661   F   F   F
  0.4999998148559556  0.7500001202376085  0.4166666662342661   F   F   F
  0.8333331481892892  0.2500001202376085  0.4166666662342661   F   F   F
  0.8333331481892892  0.7500001202376085  0.4166666662342661   F   F   F
  0.3329542692028074  0.0020096069445088  0.5829713896347245   T   T   T
  0.3307986249473739  0.5019888145749249  0.5832191948774192   T   T   T
  0.6666732245523974  0.0015876478999705  0.5829932205410100   T   T   T
  0.6666640577285550  0.5036033883559877  0.5861803842500378   T   T   T
  1.0003929244415188  0.0020091473579237  0.5829715595445732   T   T   T
  1.0025296335930496  0.5019875496297778  0.5832187628553896   T   T   T
  0.3334398667662328  0.1678472182063303  0.5279446742628281   T   T   T
  0.3335702807933054  0.6670536085698722  0.5279710411727324   T   T   T
  0.6666662756107433  0.1679873701071107  0.5280113563817833   T   T   T
  0.6666659477974985  0.6645270846137338  0.5286039672674779   T   T   T
  0.9998922083502946  0.1678465561058086  0.5279447557225206   T   T   T
  0.9997584840915121  0.6670548910451207  0.5279711660200589   T   T   T
  0.3333331481892897  0.3333334587597487  0.4722222226546229   F   F   F
  0.3333331481892897  0.8333334587597487  0.4722222226546229   F   F   F
  0.6666664815226231  0.3333334587597487  0.4722222226546229   F   F   F
  0.6666664815226231  0.8333334587597487  0.4722222226546229   F   F   F
  0.9999998148559561  0.3333334587597487  0.4722222226546229   F   F   F
  0.9999998148559563  0.8333334587597487  0.4722222226546229   F   F   F
  0.3333331481892892  0.0000001254264155  0.4166666670990671   F   F   F
  0.3333331481892892  0.5000001254264155  0.4166666670990673   F   F   F
  0.6666664815226225  0.0000001254264155  0.4166666670990671   F   F   F
  0.6666664815226224  0.5000001254264155  0.4166666670990673   F   F   F
  0.9999998148559557  0.0000001254264155  0.4166666670990671   F   F   F
  0.9999998148559557  0.5000001254264155  0.4166666670990673   F   F   F
  0.6666639949848668  0.4926349252152032  0.6314260665559178   T   T   T
  0.6666680232199585  0.4997069349550147  0.6595703729578815   T   T   T
