 H Pd  C  O 
 1.0000000000000000
     8.2582115393440390    0.0000000000000000    0.0000000000000006
    -4.1291057696720213    7.1518209828977302    0.0000000000000006
     0.0000000000000000    0.0000000000000000   40.4568089187138042
 H   Pd  C   O  
   1  36   8   9
Selective dynamics
Direct
  0.7156849904525504  0.0857660231557384  0.6464726889541780   T   T   T
  0.0000003242213467  0.0000001621106736  0.4166666666666669   F   F   F
  0.0000003242213467  0.3333334954440070  0.4166666666666669   F   F   F
  0.0000003242213466  0.6666668287773403  0.4166666666666669   F   F   F
  0.3333336575546800  0.0000001621106736  0.4166666666666669   F   F   F
  0.3333336575546800  0.3333334954440070  0.4166666666666669   F   F   F
  0.3333336575546799  0.6666668287773403  0.4166666666666669   F   F   F
  0.6666669908880133  0.0000001621106736  0.4166666666666669   F   F   F
  0.6666669908880132  0.3333334954440070  0.4166666666666669   F   F   F
  0.6666669908880132  0.6666668287773403  0.4166666666666669   F   F   F
  0.1111114353324573  0.2222223843328956  0.4722222222222223   F   F   F
  0.1111114353324573  0.5555557176662289  0.4722222222222223   F   F   F
  0.1111114353324574  0.8888890509995623  0.4722222222222223   F   F   F
  0.4444447686657906  0.2222223843328956  0.4722222222222223   F   F   F
  0.4444447686657906  0.5555557176662289  0.4722222222222223   F   F   F
  0.4444447686657906  0.8888890509995623  0.4722222222222223   F   F   F
  0.7777781019991239  0.2222223843328956  0.4722222222222223   F   F   F
  0.7777781019991239  0.5555557176662289  0.4722222222222223   F   F   F
  0.7777781019991239  0.8888890509995623  0.4722222222222223   F   F   F
  0.2223484539620925  0.1115412828115863  0.5285814664289428   T   T   T
  0.2230638986750393  0.4457905583204686  0.5284382487449705   T   T   T
  0.2226154657970539  0.7786453490214136  0.5284443882619289   T   T   T
  0.5553541678669307  0.1127403381398632  0.5278151879675876   T   T   T
  0.5558294335520337  0.4454768845053569  0.5283663984884301   T   T   T
  0.5552311105643870  0.7775577725114637  0.5277679417951997   T   T   T
  0.8904818502321149  0.1127499215930105  0.5278280554341088   T   T   T
  0.8894740039087724  0.4457639353693033  0.5282037455953589   T   T   T
  0.8895122378922735  0.7787779635023089  0.5283410251328089   T   T   T
 -0.0012892390047064  0.0020848302926724  0.5857898507288211   T   T   T
  0.0005873960673747  0.3355571522574524  0.5851652408607216   T   T   T
  0.0011759317925973  0.6698599350095942  0.5853383588415331   T   T   T
  0.3360300075039641  0.0019798692595613  0.5857893464016106   T   T   T
  0.3340036115770621  0.3350801326542154  0.5854228536159047   T   T   T
  0.3365748751607182  0.6711099964536910  0.5858592699759668   T   T   T
  0.6700140277406299  0.0068749397708877  0.5828480574463524   T   T   T
  0.6675839262681810  0.3353754211109053  0.5852636183191549   T   T   T
  0.6672289398073802  0.6712895063285944  0.5852728004111035   T   T   T
  0.6660686959621478  0.6761322595312730  0.6320251204162497   T   T   T
  0.3452230014329477  0.0000919258990257  0.6324919345061013   T   T   T
  0.0018203651559234  0.6700034878194621  0.6317425221810251   T   T   T
 -0.0004268438008149  0.3334503729582570  0.6314356603516079   T   T   T
  0.3324981795943490  0.3315892425058631  0.6318369127125391   T   T   T
  0.6671402243372210  0.3311301197093741  0.6315947165943573   T   T   T
  0.3443854778516183  0.6774754170880214  0.6327884942102253   T   T   T
 -0.0111240571581205  0.0002625360135673  0.6324405333827320   T   T   T
  0.6662984526532169  0.6647218412148860  0.6604309701946651   T   T   T
  0.6499671263148722 -0.0270178409663072  0.6329443728644639   T   T   T
  0.3396315338941994  0.0015121190500080  0.6609846937385955   T   T   T
  0.0020155079866776  0.6708412638165560  0.6602832325217204   T   T   T
 -0.0033048818722832  0.3320671090258295  0.6600336922728013   T   T   T
  0.3326914845887893  0.3314351391554807  0.6603760825207076   T   T   T
  0.6690205898433321  0.3307101548530793  0.6601773352063086   T   T   T
  0.3340014563385518  0.6668986968991972  0.6612053213357801   T   T   T
 -0.0052661314572330  0.0018545226538703  0.6609448498101427   T   T   T
