 H Pd  C  O 
 1.0000000000000000
     8.2582115393440390    0.0000000000000000    0.0000000000000006
    -4.1291057696720213    7.1518209828977302    0.0000000000000006
     0.0000000000000000    0.0000000000000000   40.4568089187138042
 H   Pd  C   O  
   1  36   8   9
Selective dynamics
Direct
  0.7157433722744455  0.0859065197258325  0.6464597918954772   T   T   T
  0.0000003242213467  0.0000001621106736  0.4166666666666669   F   F   F
  0.0000003242213467  0.3333334954440070  0.4166666666666669   F   F   F
  0.0000003242213466  0.6666668287773403  0.4166666666666669   F   F   F
  0.3333336575546800  0.0000001621106736  0.4166666666666669   F   F   F
  0.3333336575546800  0.3333334954440070  0.4166666666666669   F   F   F
  0.3333336575546799  0.6666668287773403  0.4166666666666669   F   F   F
  0.6666669908880133  0.0000001621106736  0.4166666666666669   F   F   F
  0.6666669908880132  0.3333334954440070  0.4166666666666669   F   F   F
  0.6666669908880132  0.6666668287773403  0.4166666666666669   F   F   F
  0.1111114353324573  0.2222223843328956  0.4722222222222223   F   F   F
  0.1111114353324573  0.5555557176662289  0.4722222222222223   F   F   F
  0.1111114353324574  0.8888890509995623  0.4722222222222223   F   F   F
  0.4444447686657906  0.2222223843328956  0.4722222222222223   F   F   F
  0.4444447686657906  0.5555557176662289  0.4722222222222223   F   F   F
  0.4444447686657906  0.8888890509995623  0.4722222222222223   F   F   F
  0.7777781019991239  0.2222223843328956  0.4722222222222223   F   F   F
  0.7777781019991239  0.5555557176662289  0.4722222222222223   F   F   F
  0.7777781019991239  0.8888890509995623  0.4722222222222223   F   F   F
  0.2223467480874591  0.1115497478163929  0.5285863114284318   T   T   T
  0.2230598566951111  0.4457840173582580  0.5284520014940945   T   T   T
  0.2226138240051425  0.7786423450486663  0.5284577144566575   T   T   T
  0.5553299396070669  0.1127333170094727  0.5278232975713194   T   T   T
  0.5558321875857950  0.4454702490367112  0.5283810755054579   T   T   T
  0.5552236471955927  0.7775437822498255  0.5277787639043028   T   T   T
  0.8904826573192508  0.1127393550402498  0.5278334669910314   T   T   T
  0.8894709814330103  0.4457561411397749  0.5282153802932443   T   T   T
  0.8895116649794889  0.7787738958119990  0.5283566890024647   T   T   T
 -0.0013251493378707  0.0020461468212119  0.5858063082480209   T   T   T
  0.0005929491471161  0.3355533038776697  0.5851841667054115   T   T   T
  0.0011594835962326  0.6698214430150355  0.5853579263007112   T   T   T
  0.3360040057120727  0.0019471544199173  0.5858018220111532   T   T   T
  0.3339890405206621  0.3350547538087115  0.5854423057001187   T   T   T
  0.3366071622975965  0.6711216230082008  0.5858737754966148   T   T   T
  0.6700365901234758  0.0069133657204457  0.5828499317960348   T   T   T
  0.6675554790278668  0.3353568210675854  0.5852830548601484   T   T   T
  0.6672218093589117  0.6713061564616603  0.5852763420372463   T   T   T
  0.6660571068034141  0.6759912025648362  0.6320177121621244   T   T   T
  0.3451067278789972  0.0001192263948635  0.6325001629256094   T   T   T
  0.0018505703674337  0.6700050353160916  0.6317556375209127   T   T   T
 -0.0004067594738078  0.3334970545480603  0.6314482577350139   T   T   T
  0.3324624347220673  0.3315643778742276  0.6318509115038858   T   T   T
  0.6671843579217903  0.3311412073116786  0.6316086575956181   T   T   T
  0.3443090203759344  0.6774162473498594  0.6327943877395886   T   T   T
 -0.0110324220293694  0.0003195141759164  0.6324498400019148   T   T   T
  0.6662759639930101  0.6645395343574004  0.6604199386504337   T   T   T
  0.6499814346372844 -0.0268558280193917  0.6329278916085959   T   T   T
  0.3396573837971644  0.0015250736478066  0.6609894712772570   T   T   T
  0.0020207114485114  0.6708981810238281  0.6602903562129694   T   T   T
 -0.0032427333358832  0.3321639502280228  0.6600420489782726   T   T   T
  0.3327055347805172  0.3314358453765969  0.6603846075072940   T   T   T
  0.6690358012310853  0.3308141926671270  0.6601860540564395   T   T   T
  0.3339534697630105  0.6669039751504394  0.6612090861092591   T   T   T
 -0.0051121503572558  0.0019416131381397  0.6609513417870718   T   T   T
