Ag Pd 
 1.0000000000000000
     8.5013114179517117    0.0000000000000000    0.0000000000000005
     4.2506557089758541    7.3623516534288900    0.0000000000000005
     0.0000000000000000    0.0000000000000000   48.5890419431158733
 Ag  Pd 
  26  10
Selective dynamics
Direct
  0.6666666666666671  0.6666666666666666  0.4761904911784334   F   F   F
  0.3333332867041333  0.3333332867041335  0.4761904711944905   F   F   F
  0.3333332867041333  0.9999999533708002  0.4761904711944905   F   F   F
  0.9999999533707997  0.3333332867041335  0.4761904711944905   F   F   F
  0.9999999533707999  0.9999999533708002  0.4761904711944905   F   F   F
  0.6666667599250664  0.3333332867041335  0.4761904711944905   F   F   F
  0.6666667599250664  0.9999999533708002  0.4761904711944905   F   F   F
  0.4444444444444445  0.4444444444444445  0.5238095387974809   F   F   F
  0.6666492282586397  0.6673083237469657  0.6203366610003443   T   T   T
  0.2238402660425934  0.2214770573679573  0.5714072854060932   T   T   T
  0.2217964379812669  0.8910384471163382  0.5714835329771050   T   T   T
  0.8877075595149008  0.2219889026096909  0.5711103235919963   T   T   T
  0.8852616167948414  0.8922481585905186  0.5713755814171637   T   T   T
  0.5570388751219940  0.5553033901271276  0.5714974524602383   T   T   T
  0.1111110644819112  0.7777777311485777  0.5238095188135381   F   F   F
  0.7777777311485781  0.7777777311485777  0.5238095188135381   F   F   F
  0.3320557829892078  0.3369385521860869  0.6202610822377358   T   T   T
  0.3332625591592813  0.9982598284945639  0.6203426001301966   T   T   T
  0.9997169578544263  0.3350804752389991  0.6208119556529659   T   T   T
  1.0017695832550968  0.9964889333055047  0.6210486974053225   T   T   T
  0.2231682635042319  0.5530578294969412  0.5711639551150073   T   T   T
  0.8879155867234039  0.5554478788964180  0.5712005741293052   T   T   T
  0.4444445377028442  0.1111110644819113  0.5238095188135381   F   F   F
  0.4444445377028442  0.7777777311485780  0.5238095188135381   F   F   F
  0.6652070692388952  0.3342963147638113  0.6201136963915128   T   T   T
  0.6673519672552040  0.9989190476026806  0.6197505330475033   T   T   T
  0.3333332867041338  0.6666667599250664  0.4761904711944905   F   F   F
  0.9999999533708005  0.6666667599250664  0.4761904711944905   F   F   F
  0.5564461617471892  0.2212305997351360  0.5716868556124504   T   T   T
  0.5549837306566620  0.8894327081965351  0.5718558676388721   T   T   T
  0.1111110644819112  0.4444445377028443  0.5238095188135381   F   F   F
  0.1111110644819112  1.1111112043695111  0.5238095188135381   F   F   F
  0.7777777311485784  0.4444445377028443  0.5238095188135381   F   F   F
  0.7777777311485777  1.1111112043695111  0.5238095188135381   F   F   F
  0.3312573086081797  0.6672308100203493  0.6179238210679191   T   T   T
  1.0013909851035898  0.6662553585036649  0.6178618892781274   T   T   T
