Ag Pd  C  O 
 1.0000000000000000
     8.5013114179517117    0.0000000000000000    0.0000000000000005
     4.2506557089758541    7.3623516534288900    0.0000000000000005
     0.0000000000000000    0.0000000000000000   48.5890419431158733
 Ag  Pd  C   O  
  26  10   1   1
Selective dynamics
Direct
  0.6666666666666671  0.6666666666666666  0.4761904911784334   F   F   F
  0.3333332867041333  0.3333332867041335  0.4761904711944905   F   F   F
  0.3333332867041333  0.9999999533708002  0.4761904711944905   F   F   F
  0.9999999533707997  0.3333332867041335  0.4761904711944905   F   F   F
  0.9999999533707999  0.9999999533708002  0.4761904711944905   F   F   F
  0.6666667599250664  0.3333332867041335  0.4761904711944905   F   F   F
  0.6666667599250664  0.9999999533708002  0.4761904711944905   F   F   F
  0.4444444444444445  0.4444444444444445  0.5238095387974809   F   F   F
  0.6683887287784012  0.6675294589486299  0.6200565462977902   T   T   T
  0.2235144443051903  0.2217922863441351  0.5711297464249915   T   T   T
  0.2234418815655679  0.8878314316827445  0.5718624230836120   T   T   T
  0.8876996836728422  0.2222054003797737  0.5708873364482460   T   T   T
  0.8853939446047494  0.8918268217696618  0.5713064445876629   T   T   T
  0.5544423046649413  0.5566209145326437  0.5718709386480876   T   T   T
  0.1111110644819112  0.7777777311485777  0.5238095188135381   F   F   F
  0.7777777311485781  0.7777777311485777  0.5238095188135381   F   F   F
  0.3321321163752851  0.3347711025703757  0.6199271034778514   T   T   T
  0.3334834052273629  1.0004736925435838  0.6199290935331577   T   T   T
  0.9997014971990686  0.3349436218384695  0.6204972933295673   T   T   T
  0.9995965995534862  0.9986676675658778  0.6204511932887378   T   T   T
  0.2246296904011121  0.5551028074662652  0.5717598154713637   T   T   T
  0.8882869378394922  0.5555644286912648  0.5711407893167415   T   T   T
  0.4444445377028442  0.1111110644819113  0.5238095188135381   F   F   F
  0.4444445377028442  0.7777777311485780  0.5238095188135381   F   F   F
  0.6673837177604254  0.3319782994264515  0.6198191030382821   T   T   T
  0.6671501405850528  0.9990130894658762  0.6194977717513901   T   T   T
  0.3333332867041338  0.6666667599250664  0.4761904711944905   F   F   F
  0.9999999533708005  0.6666667599250664  0.4761904711944905   F   F   F
  0.5560404118469658  0.2220509887594111  0.5716133785449224   T   T   T
  0.5544206804919347  0.8891811636737524  0.5717562280389636   T   T   T
  0.1111110644819112  0.4444445377028443  0.5238095188135381   F   F   F
  0.1111110644819112  1.1111112043695111  0.5238095188135381   F   F   F
  0.7777777311485784  0.4444445377028443  0.5238095188135381   F   F   F
  0.7777777311485777  1.1111112043695111  0.5238095188135381   F   F   F
  0.3318861434855634  0.6671069270286553  0.6212718096438093   T   T   T
  0.9987115131251583  0.6667356388048873  0.6177457589780997   T   T   T
  0.3340516352046507  0.6654766910764129  0.6601357557105237   T   T   T
  0.3325535607375260  0.6669398954306187  0.6839529259986639   T   T   T
