Pd 
 1.0000000000000000
     8.2582115393440390    0.0000000000000000    0.0000000000000006
    -4.1291057696720213    7.1518209828977302    0.0000000000000006
     0.0000000000000000    0.0000000000000000   40.4568089187138042
 Pd 
  36
Selective dynamics
Direct
  0.0000003242213467  0.0000001621106736  0.4166666666666669   F   F   F
  0.0000003242213467  0.3333334954440070  0.4166666666666669   F   F   F
  0.0000003242213466  0.6666668287773403  0.4166666666666669   F   F   F
  0.3333336575546800  0.0000001621106736  0.4166666666666669   F   F   F
  0.3333336575546800  0.3333334954440070  0.4166666666666669   F   F   F
  0.3333336575546799  0.6666668287773403  0.4166666666666669   F   F   F
  0.6666669908880133  0.0000001621106736  0.4166666666666669   F   F   F
  0.6666669908880132  0.3333334954440070  0.4166666666666669   F   F   F
  0.6666669908880132  0.6666668287773403  0.4166666666666669   F   F   F
  0.1111114353324573  0.2222223843328956  0.4722222222222223   F   F   F
  0.1111114353324573  0.5555557176662289  0.4722222222222223   F   F   F
  0.1111114353324574  0.8888890509995623  0.4722222222222223   F   F   F
  0.4444447686657906  0.2222223843328956  0.4722222222222223   F   F   F
  0.4444447686657906  0.5555557176662289  0.4722222222222223   F   F   F
  0.4444447686657906  0.8888890509995623  0.4722222222222223   F   F   F
  0.7777781019991239  0.2222223843328956  0.4722222222222223   F   F   F
  0.7777781019991239  0.5555557176662289  0.4722222222222223   F   F   F
  0.7777781019991239  0.8888890509995623  0.4722222222222223   F   F   F
  0.2222209214752165  0.1111101185867936  0.5275174514301251   T   T   T
  0.2222206614649105  0.4444433168135644  0.5275173955503331   T   T   T
  0.2222210229560752  0.7777769514959408  0.5275174242843313   T   T   T
  0.5555546572148871  0.1111103362342901  0.5275174536088144   T   T   T
  0.5555544874104191  0.4444433097897813  0.5275173679539601   T   T   T
  0.5555545704095312  0.7777772877092961  0.5275173860597184   T   T   T
  0.8888879879806266  0.1111105123485135  0.5275174816252135   T   T   T
  0.8888879555300152  0.4444434153335002  0.5275174461429282   T   T   T
  0.8888882033514451  0.7777772627691447  0.5275174284097263   T   T   T
  0.0000014196422378  0.0000018989478621  0.5837038550299521   T   T   T
  0.0000002684576589  0.3333338190956579  0.5837037828788352   T   T   T
  0.0000013581357450  0.6666677040886271  0.5837036254414927   T   T   T
  0.3333342566896540  0.0000012580689107  0.5837037148384526   T   T   T
  0.3333331122990538  0.3333331736529441  0.5837034965836313   T   T   T
  0.3333333795844132  0.6666678734045403  0.5837034140854495   T   T   T
  0.6666686435541390  0.0000026408584629  0.5837036315614033   T   T   T
  0.6666683588029637  0.3333336638139761  0.5837036129260678   T   T   T
  0.6666686227278662  0.6666683791309062  0.5837032884712632   T   T   T
