Ag Pd 
 1.0000000000000000
     8.3348369443761747    0.0000000000000000    0.0000000000000005
     4.1674184721880891    7.2181805302308319    0.0000000000000005
     0.0000000000000000    0.0000000000000000   47.6375610737127033
 Ag  Pd 
   9  27
Selective dynamics
Direct
  0.6666666666666667  0.6666666666666667  0.4761904572003339   F   F   F
  0.4444444444444448  0.4444444444444445  0.5238095048193816   F   F   F
  0.4444444444444446  1.1111111111111112  0.5238095048193816   F   F   F
  0.9991610980079096  0.6672904153726639  0.6226131249784184   T   T   T
  0.3345816860394106  0.6676443324214143  0.6228209701934139   T   T   T
  0.2228727844243248  0.2218172708402816  0.5717801433614926   T   T   T
  0.2246788718256639  0.8855263493340030  0.5725699841530344   T   T   T
  0.8889316763777934  0.2222167625966770  0.5717021357439664   T   T   T
  0.8899529514093211  0.8870012068093319  0.5724362815507010   T   T   T
  0.3333333924137755  0.3333333924137756  0.4761904825205235   F   F   F
  0.3333333924137756  1.0000000590804423  0.4761904825205235   F   F   F
  1.0000000590804421  0.3333333924137756  0.4761904825205235   F   F   F
  1.0000000590804421  1.0000000590804423  0.4761904825205235   F   F   F
  0.6666665485057828  0.3333333924137756  0.4761904825205235   F   F   F
  0.6666665485057829  1.0000000590804423  0.4761904825205235   F   F   F
  0.3333333924137759  0.6666665485057824  0.4761904825205235   F   F   F
  1.0000000590804428  0.6666665485057824  0.4761904825205235   F   F   F
  0.5559659844710017  0.5545051870695092  0.5716114761348988   T   T   T
  0.1111111701915532  0.1111111701915532  0.5238095301395711   F   F   F
  0.1111111701915533  0.7777778368582199  0.5238095301395711   F   F   F
  0.7777778368582201  0.1111111701915532  0.5238095301395711   F   F   F
  0.7777778368582201  0.7777778368582199  0.5238095301395711   F   F   F
  0.3363245126400525  0.3315895027242434  0.6192354616487143   T   T   T
  0.3355438287949042  1.0025078891343726  0.6201596451239269   T   T   T
  0.9994448476867327  0.3342240798593317  0.6197747074571005   T   T   T
  0.9976794295079137  1.0065362191516056  0.6207678397442815   T   T   T
  0.2229242296781985  0.5539259403784237  0.5720715436970938   T   T   T
  0.8893649283040820  0.5556686757782660  0.5711841219334082   T   T   T
  0.4444443262835602  0.7777778368582199  0.5238095301395711   F   F   F
  0.6673981714508727  0.3341081526404369  0.6194651111129067   T   T   T
  0.6632919722623853  1.0026184104759164  0.6196890846014039   T   T   T
  0.5567100495356029  0.2222355023306547  0.5718358015661233   T   T   T
  0.5574033883869828  0.8872468710722324  0.5715934922434489   T   T   T
  0.1111111701915534  0.4444443262835603  0.5238095301395711   F   F   F
  0.7777778368582202  0.4444443262835603  0.5238095301395711   F   F   F
  0.6679031245898459  0.6668527174822823  0.6186980851932897   T   T   T
