Pd  C  O 
 1.0000000000000000
     8.2582115393440390    0.0000000000000000    0.0000000000000006
    -4.1291057696720213    7.1518209828977302    0.0000000000000006
     0.0000000000000000    0.0000000000000000   40.4568089187138042
 Pd  C   O  
  36   1   1
Selective dynamics
Direct
  0.0000003242213467  0.0000001621106736  0.4166666666666669   F   F   F
  0.0000003242213467  0.3333334954440070  0.4166666666666669   F   F   F
  0.0000003242213466  0.6666668287773403  0.4166666666666669   F   F   F
  0.3333336575546800  0.0000001621106736  0.4166666666666669   F   F   F
  0.3333336575546800  0.3333334954440070  0.4166666666666669   F   F   F
  0.3333336575546799  0.6666668287773403  0.4166666666666669   F   F   F
  0.6666669908880133  0.0000001621106736  0.4166666666666669   F   F   F
  0.6666669908880132  0.3333334954440070  0.4166666666666669   F   F   F
  0.6666669908880132  0.6666668287773403  0.4166666666666669   F   F   F
  0.1111114353324573  0.2222223843328956  0.4722222222222223   F   F   F
  0.1111114353324573  0.5555557176662289  0.4722222222222223   F   F   F
  0.1111114353324574  0.8888890509995623  0.4722222222222223   F   F   F
  0.4444447686657906  0.2222223843328956  0.4722222222222223   F   F   F
  0.4444447686657906  0.5555557176662289  0.4722222222222223   F   F   F
  0.4444447686657906  0.8888890509995623  0.4722222222222223   F   F   F
  0.7777781019991239  0.2222223843328956  0.4722222222222223   F   F   F
  0.7777781019991239  0.5555557176662289  0.4722222222222223   F   F   F
  0.7777781019991239  0.8888890509995623  0.4722222222222223   F   F   F
  0.2221431241144382  0.1111861958445160  0.5274351681622168   T   T   T
  0.2221223321828180  0.4443936365260815  0.5274985160432023   T   T   T
  0.2221435006114653  0.7776230858260601  0.5274349877705919   T   T   T
  0.5557071174827186  0.1111860151586441  0.5274350526406024   T   T   T
  0.5564685357613590  0.4462760852566371  0.5281467467295350   T   T   T
  0.5564705907496541  0.7768581645367915  0.5281465675065673   T   T   T
  0.8889361534660984  0.1112072057864474  0.5274985049236958   T   T   T
  0.8889355949749599  0.4443947295661493  0.5274983588943253   T   T   T
  0.8870535898286553  0.7768609446210450  0.5281468034006006   T   T   T
  0.0022649092985617  0.0019746800591372  0.5836703635343452   T   T   T
  0.0000015960556295  0.3333334727140292  0.5836674288826652   T   T   T
  0.0022662242441394  0.6669572115493794  0.5836691110515104   T   T   T
  0.3333333449574168  0.0000017419842848  0.5837764506695536   T   T   T
  0.3313584551434010  0.3310681857122214  0.5836702775726966   T   T   T
  0.3313582497679031  0.6669584854040552  0.5836687815471698   T   T   T
  0.6663758507939995  0.0019756005466337  0.5836690490725691   T   T   T
  0.6663782053057858  0.3310679403693412  0.5836689171484288   T   T   T
  0.6666648051740176  0.6666648455036794  0.5866499199412052   T   T   T
  0.6666689229845396  0.6666690038422213  0.6325771180793629   T   T   T
  0.6666630088338722  0.6666631994262626  0.6611535496126846   T   T   T
