Pd  C  O 
 1.0000000000000000
     8.2582115393440390    0.0000000000000000    0.0000000000000006
    -4.1291057696720213    7.1518209828977302    0.0000000000000006
     0.0000000000000000    0.0000000000000000   40.4568089187138042
 Pd  C   O  
  36   1   1
Selective dynamics
Direct
  0.0000003242213467  0.0000001621106736  0.4166666666666669   F   F   F
  0.0000003242213467  0.3333334954440070  0.4166666666666669   F   F   F
  0.0000003242213466  0.6666668287773403  0.4166666666666669   F   F   F
  0.3333336575546800  0.0000001621106736  0.4166666666666669   F   F   F
  0.3333336575546800  0.3333334954440070  0.4166666666666669   F   F   F
  0.3333336575546799  0.6666668287773403  0.4166666666666669   F   F   F
  0.6666669908880133  0.0000001621106736  0.4166666666666669   F   F   F
  0.6666669908880132  0.3333334954440070  0.4166666666666669   F   F   F
  0.6666669908880132  0.6666668287773403  0.4166666666666669   F   F   F
  0.1111114353324573  0.2222223843328956  0.4722222222222223   F   F   F
  0.1111114353324573  0.5555557176662289  0.4722222222222223   F   F   F
  0.1111114353324574  0.8888890509995623  0.4722222222222223   F   F   F
  0.4444447686657906  0.2222223843328956  0.4722222222222223   F   F   F
  0.4444447686657906  0.5555557176662289  0.4722222222222223   F   F   F
  0.4444447686657906  0.8888890509995623  0.4722222222222223   F   F   F
  0.7777781019991239  0.2222223843328956  0.4722222222222223   F   F   F
  0.7777781019991239  0.5555557176662289  0.4722222222222223   F   F   F
  0.7777781019991239  0.8888890509995623  0.4722222222222223   F   F   F
  0.2221437551152111  0.1111857912757774  0.5274272543504890   T   T   T
  0.2221244454879140  0.4443947122970371  0.5274889439454867   T   T   T
  0.2221441125458074  0.7776241921914725  0.5274271247630166   T   T   T
  0.5557062694509356  0.1111856543503767  0.5274271803602807   T   T   T
  0.5565063000801591  0.4463512970555171  0.5281429695307144   T   T   T
  0.5565082549064595  0.7768207387894247  0.5281428335881954   T   T   T
  0.8889353364503831  0.1112053089889758  0.5274889258466423   T   T   T
  0.8889347040608448  0.4443957395909269  0.5274888108551830   T   T   T
  0.8869784750321977  0.7768232401880869  0.5281430669925695   T   T   T
  0.0022410901749092  0.0019309166240732  0.5836500217878932   T   T   T
  0.0000016247349676  0.3333335603796770  0.5836575590116807   T   T   T
  0.0022420635214442  0.6669771530334048  0.5836488613551551   T   T   T
  0.3333334031671844  0.0000016837327926  0.5837645996799805   T   T   T
  0.3314025459084655  0.3310923830861365  0.5836499365244319   T   T   T
  0.3314023705206349  0.6669783907434369  0.5836485534918884   T   T   T
  0.6663560899803409  0.0019316291007117  0.5836488011113053   T   T   T
  0.6663583360444666  0.3310921677285049  0.5836486748008241   T   T   T
  0.6666648069354162  0.6666648090033429  0.5866642383075608   T   T   T
  0.6666692959297436  0.6666693652054163  0.6326172321834386   T   T   T
  0.6666642545953215  0.6666643435611730  0.6611849653505905   T   T   T
