 H Pd  C  O 
 1.0000000000000000
     8.2582115393440390    0.0000000000000000    0.0000000000000006
    -4.1291057696720213    7.1518209828977302    0.0000000000000006
     0.0000000000000000    0.0000000000000000   40.4568089187138042
 H   Pd  C   O  
   8  36   1   9
Selective dynamics
Direct
  0.7702420535896463  0.0970712273452310  0.6389963712780365   T   T   T
  0.4302860116144215  0.7711453469488907  0.6401382837473542   T   T   T
  0.1146031395073588 -0.0127230743529689  0.6377747199518887   T   T   T
  0.0984046539804263  0.3088370637313508  0.6390591972846441   T   T   T
  0.4288477166055628  0.3077726626399619  0.6386701219606731   T   T   T
  0.7911725797448123  0.4374687368639341  0.6379814795995892   T   T   T
  0.1189258363264616  0.6587742334875756  0.6372500372383986   T   T   T
  0.4594490631415175  0.0258830450665378  0.6374408618424628   T   T   T
  0.0000003242213467  0.0000001621106736  0.4166666666666669   F   F   F
  0.0000003242213467  0.3333334954440070  0.4166666666666669   F   F   F
  0.0000003242213466  0.6666668287773403  0.4166666666666669   F   F   F
  0.3333336575546800  0.0000001621106736  0.4166666666666669   F   F   F
  0.3333336575546800  0.3333334954440070  0.4166666666666669   F   F   F
  0.3333336575546799  0.6666668287773403  0.4166666666666669   F   F   F
  0.6666669908880133  0.0000001621106736  0.4166666666666669   F   F   F
  0.6666669908880132  0.3333334954440070  0.4166666666666669   F   F   F
  0.6666669908880132  0.6666668287773403  0.4166666666666669   F   F   F
  0.1111114353324573  0.2222223843328956  0.4722222222222223   F   F   F
  0.1111114353324573  0.5555557176662289  0.4722222222222223   F   F   F
  0.1111114353324574  0.8888890509995623  0.4722222222222223   F   F   F
  0.4444447686657906  0.2222223843328956  0.4722222222222223   F   F   F
  0.4444447686657906  0.5555557176662289  0.4722222222222223   F   F   F
  0.4444447686657906  0.8888890509995623  0.4722222222222223   F   F   F
  0.7777781019991239  0.2222223843328956  0.4722222222222223   F   F   F
  0.7777781019991239  0.5555557176662289  0.4722222222222223   F   F   F
  0.7777781019991239  0.8888890509995623  0.4722222222222223   F   F   F
  0.2204083177236725  0.1098661807005249  0.5277750346395034   T   T   T
  0.2199089790768305  0.4426286423405302  0.5279328765873809   T   T   T
  0.2205186504067079  0.7760339129206155  0.5278690981748937   T   T   T
  0.5543120764621106  0.1098444936708864  0.5277149335717315   T   T   T
  0.5539644683482940  0.4439260771234415  0.5280435251419202   T   T   T
  0.5536914848312627  0.7747365359739062  0.5280145651320639   T   T   T
  0.8867805353976485  0.1082679038881685  0.5280686217081167   T   T   T
  0.8873177795457519  0.4423542718391497  0.5279875601617031   T   T   T
  0.8865479495838334  0.7753889355378082  0.5281958480119564   T   T   T
 -0.0096130940911873 -0.0098167059893529  0.5839623151734668   T   T   T
 -0.0121891815872176  0.3210209807890115  0.5839981056852978   T   T   T
 -0.0098688824073959  0.6561831989134714  0.5837395810825985   T   T   T
  0.3230752694440062 -0.0084412535546826  0.5832582260166880   T   T   T
  0.3230062525989302  0.3251096732748930  0.5835912600839097   T   T   T
  0.3216380394352920  0.6575649246601660  0.5839264364274578   T   T   T
  0.6548359653711632 -0.0076497194814991  0.5836105186653158   T   T   T
  0.6564380357192341  0.3264009709152937  0.5835941313700619   T   T   T
  0.6572740689996700  0.6608313745494312  0.5860552472445063   T   T   T
  0.6667803875851479  0.6692479661019790  0.6337029933892234   T   T   T
  0.6666823263245459  0.6694420262040266  0.6620490538875174   T   T   T
  0.6436471066149099 -0.0113713294518039  0.6329649119270353   T   T   T
  0.3141747009512939  0.6560764480225250  0.6331167772270693   T   T   T
 -0.0049520368183729 -0.0152952404373169  0.6321775618664648   T   T   T
 -0.0206679950065470  0.3048623452053284  0.6328037729206523   T   T   T
  0.3236418052500383  0.3287957527195860  0.6321900071052425   T   T   T
  0.6584825771047761  0.3396367224281830  0.6323816725813776   T   T   T
 -0.0071033797634602  0.6480271944675082  0.6324133198315712   T   T   T
  0.3290536151951973 -0.0004295732626834  0.6318795110144968   T   T   T
