Ag Pd  C  O 
 1.0000000000000000
     8.4012246744318553    0.0000000000000000    0.0000000000000006
     0.0000000000000016    9.7556249397631500    0.0778334351619916
     0.0000000000000000    0.0000000000000000   41.2743430770740716
 Ag  Pd  C   O  
  24  24   1   1
Selective dynamics
Direct
  0.1666695721319781  0.2501137551550189  0.5853848011193198   T   T   T
  0.1666663975939466  0.7513413382197990  0.5852562441414217   T   T   T
  0.4987741398500053  0.2489606412173808  0.5853030303161363   T   T   T
  0.4982336477004074  0.7527935566010543  0.5850781401807414   T   T   T
  0.8345649278932890  0.2489604424493177  0.5853040502593552   T   T   T
  0.8351009695622065  0.7527933487789165  0.5850790422899548   T   T   T
  0.1666607145532943  0.4160653612350130  0.5279867565760519   T   T   T
  0.1666713105309048  0.9158307512424144  0.5278041784357257   T   T   T
  0.5009978137569804  0.4165259749534302  0.5283226350276509   T   T   T
  0.5003436004736648  0.9156818644605627  0.5278018427065059   T   T   T
  0.8323276063025616  0.4165255012975041  0.5283221456276399   T   T   T
  0.8329986587274355  0.9156817744118394  0.5278019126520201   T   T   T
  0.1666664815226225  0.0833334535709418  0.4722222217898217   F   F   F
  0.1666664815226226  0.5833334535709418  0.4722222217898217   F   F   F
  0.4999998148559556  0.0833334535709418  0.4722222217898217   F   F   F
  0.4999998148559556  0.5833334535709418  0.4722222217898217   F   F   F
  0.8333331481892892  0.0833334535709418  0.4722222217898217   F   F   F
  0.8333331481892892  0.5833334535709418  0.4722222217898217   F   F   F
  0.1666664815226225  0.2500001202376085  0.4166666662342661   F   F   F
  0.1666664815226226  0.7500001202376085  0.4166666662342661   F   F   F
  0.4999998148559556  0.2500001202376085  0.4166666662342661   F   F   F
  0.4999998148559556  0.7500001202376085  0.4166666662342661   F   F   F
  0.8333331481892892  0.2500001202376085  0.4166666662342661   F   F   F
  0.8333331481892892  0.7500001202376085  0.4166666662342661   F   F   F
  0.3328938141426105  0.0019279256009491  0.5831115608023433   T   T   T
  0.3308550934227295  0.5021086334467333  0.5833149904141831   T   T   T
  0.6666740340029423  0.0014284928473558  0.5831514580624387   T   T   T
  0.6666639025961248  0.5038869936085650  0.5862728002757985   T   T   T
  1.0004542295221355  0.0019276289482089  0.5831117205825280   T   T   T
  1.0024726801255763  0.5021071363952752  0.5833165388202235   T   T   T
  0.3334309742403720  0.1680372453180236  0.5279120394745548   T   T   T
  0.3336369404804012  0.6672704423558810  0.5279759137919888   T   T   T
  0.6666653082750184  0.1682753473420061  0.5280166735479180   T   T   T
  0.6666650549448185  0.6646652638828798  0.5286510936120269   T   T   T
  0.9998988656042977  0.1680362769956044  0.5279121221988075   T   T   T
  0.9996893754846988  0.6672709295696515  0.5279761283718389   T   T   T
  0.3333331481892897  0.3333334587597487  0.4722222226546229   F   F   F
  0.3333331481892897  0.8333334587597487  0.4722222226546229   F   F   F
  0.6666664815226231  0.3333334587597487  0.4722222226546229   F   F   F
  0.6666664815226231  0.8333334587597487  0.4722222226546229   F   F   F
  0.9999998148559561  0.3333334587597487  0.4722222226546229   F   F   F
  0.9999998148559563  0.8333334587597487  0.4722222226546229   F   F   F
  0.3333331481892892  0.0000001254264155  0.4166666670990671   F   F   F
  0.3333331481892892  0.5000001254264155  0.4166666670990673   F   F   F
  0.6666664815226225  0.0000001254264155  0.4166666670990671   F   F   F
  0.6666664815226224  0.5000001254264155  0.4166666670990673   F   F   F
  0.9999998148559557  0.0000001254264155  0.4166666670990671   F   F   F
  0.9999998148559557  0.5000001254264155  0.4166666670990673   F   F   F
  0.6666528489621648  0.4918809375342364  0.6313782085272570   T   T   T
  0.6666538205080996  0.4993006429281445  0.6595463552018114   T   T   T
