Ag  H Pd  O 
 1.0000000000000000
     8.4012246744318553    0.0000000000000000    0.0000000000000006
     0.0000000000000016    9.7556249397631500    0.0778334351619916
     0.0000000000000000    0.0000000000000000   41.2743430770740716
 Ag  H   Pd  O  
  24   1  24   1
Selective dynamics
Direct
  0.1658747348983524  0.2519903971049034  0.5856386531376594   T   T   T
  0.1657565410866324  0.7527881835147788  0.5856166119771976   T   T   T
  0.4986484655217737  0.2514547560095654  0.5851307869397889   T   T   T
  0.4980705321039235  0.7537366903987310  0.5850436799851296   T   T   T
  0.8330957577633521  0.2520558105959702  0.5853906216537038   T   T   T
  0.8335235891947939  0.7529875139330851  0.5852295447573294   T   T   T
  0.1659929793168340  0.4169165750113680  0.5280774723924250   T   T   T
  0.1666055957112302  0.9167780372672466  0.5281049806167434   T   T   T
  0.5006362575872543  0.4176863161981357  0.5284389963854428   T   T   T
  0.5002904547822935  0.9169138317732378  0.5279807863602297   T   T   T
  0.8315845557795755  0.4177733621591740  0.5285628292804555   T   T   T
  0.8330794057547152  0.9166114011954886  0.5280313922098929   T   T   T
  0.1666664815226225  0.0833334535709418  0.4722222217898217   F   F   F
  0.1666664815226226  0.5833334535709418  0.4722222217898217   F   F   F
  0.4999998148559556  0.0833334535709418  0.4722222217898217   F   F   F
  0.4999998148559556  0.5833334535709418  0.4722222217898217   F   F   F
  0.8333331481892892  0.0833334535709418  0.4722222217898217   F   F   F
  0.8333331481892892  0.5833334535709418  0.4722222217898217   F   F   F
  0.1666664815226225  0.2500001202376085  0.4166666662342661   F   F   F
  0.1666664815226226  0.7500001202376085  0.4166666662342661   F   F   F
  0.4999998148559556  0.2500001202376085  0.4166666662342661   F   F   F
  0.4999998148559556  0.7500001202376085  0.4166666662342661   F   F   F
  0.8333331481892892  0.2500001202376085  0.4166666662342661   F   F   F
  0.8333331481892892  0.7500001202376085  0.4166666662342661   F   F   F
  0.7719526195550939  0.4968712857272388  0.6424614239007813   T   T   T
  0.3327993496844967  0.0040359377713006  0.5832999636699933   T   T   T
  0.3295703428720273  0.5040836734877975  0.5832494612628415   T   T   T
  0.6666037343003648  0.0037553265142533  0.5832754298281315   T   T   T
  0.6638186242313704  0.5052175122559716  0.5859712008866370   T   T   T
  0.9996847956353433  0.0040252306697363  0.5833394021438801   T   T   T
  1.0002688614321578  0.5039490439769824  0.5835224573846829   T   T   T
  0.3330318797275686  0.1687284765682862  0.5280264590609476   T   T   T
  0.3332307316788753  0.6681431045804072  0.5280530067631843   T   T   T
  0.6666660328035497  0.1685915250788300  0.5280340788159443   T   T   T
  0.6663928992396524  0.6657659103840133  0.5285784273076236   T   T   T
  0.9997140022894838  0.1687149828659986  0.5280874350531418   T   T   T
  0.9996343939591315  0.6680474080019929  0.5281256513906204   T   T   T
  0.3333331481892897  0.3333334587597487  0.4722222226546229   F   F   F
  0.3333331481892897  0.8333334587597487  0.4722222226546229   F   F   F
  0.6666664815226231  0.3333334587597487  0.4722222226546229   F   F   F
  0.6666664815226231  0.8333334587597487  0.4722222226546229   F   F   F
  0.9999998148559561  0.3333334587597487  0.4722222226546229   F   F   F
  0.9999998148559563  0.8333334587597487  0.4722222226546229   F   F   F
  0.3333331481892892  0.0000001254264155  0.4166666670990671   F   F   F
  0.3333331481892892  0.5000001254264155  0.4166666670990673   F   F   F
  0.6666664815226225  0.0000001254264155  0.4166666670990671   F   F   F
  0.6666664815226224  0.5000001254264155  0.4166666670990673   F   F   F
  0.9999998148559557  0.0000001254264155  0.4166666670990671   F   F   F
  0.9999998148559557  0.5000001254264155  0.4166666670990673   F   F   F
  0.6586905016185504  0.4882403389282989  0.6369557395374725   T   T   T
