Ag  H Pd  O 
 1.0000000000000000
     8.3348369443761747    0.0000000000000000    0.0000000000000005
     4.1674184721880891    7.2181805302308319    0.0000000000000005
     0.0000000000000000    0.0000000000000000   47.6375610737127033
 Ag  H   Pd  O  
   9   1  27   1
Selective dynamics
Direct
  0.6666666666666667  0.6666666666666667  0.4761904572003339   F   F   F
  0.4444444444444448  0.4444444444444445  0.5238095048193816   F   F   F
  0.4444444444444446  1.1111111111111112  0.5238095048193816   F   F   F
  0.9997971548539186  0.6689782902792247  0.6219161064953058   T   T   T
  0.3324189723018985  0.6691213032605733  0.6221041244460973   T   T   T
  0.2235009151607406  0.2221774847928226  0.5716832727268681   T   T   T
  0.2251892634977181  0.8859177637362883  0.5723292988563832   T   T   T
  0.8894351221193699  0.2222390530194928  0.5716006947365238   T   T   T
  0.8900735213702983  0.8871989039844966  0.5722008742351317   T   T   T
  0.7599117468571481  0.6682760490773314  0.6704597124373816   T   T   T
  0.3333333924137755  0.3333333924137756  0.4761904825205235   F   F   F
  0.3333333924137756  1.0000000590804423  0.4761904825205235   F   F   F
  1.0000000590804421  0.3333333924137756  0.4761904825205235   F   F   F
  1.0000000590804421  1.0000000590804423  0.4761904825205235   F   F   F
  0.6666665485057828  0.3333333924137756  0.4761904825205235   F   F   F
  0.6666665485057829  1.0000000590804423  0.4761904825205235   F   F   F
  0.3333333924137759  0.6666665485057824  0.4761904825205235   F   F   F
  1.0000000590804428  0.6666665485057824  0.4761904825205235   F   F   F
  0.5573616944418690  0.5549413340224141  0.5717820672049251   T   T   T
  0.1111111701915532  0.1111111701915532  0.5238095301395711   F   F   F
  0.1111111701915533  0.7777778368582199  0.5238095301395711   F   F   F
  0.7777778368582201  0.1111111701915532  0.5238095301395711   F   F   F
  0.7777778368582201  0.7777778368582199  0.5238095301395711   F   F   F
  0.3358816679569805  0.3330600120280008  0.6193939180900435   T   T   T
  0.3326236523175424  1.0063437053090292  0.6200368594565158   T   T   T
  1.0002736909380581  0.3350150895770130  0.6196442424613270   T   T   T
  0.9976166191406248  1.0078151969848239  0.6206457397964062   T   T   T
  0.2234832217179298  0.5539289796529862  0.5718566384997580   T   T   T
  0.8884144956587611  0.5560275882049025  0.5715330737329011   T   T   T
  0.4444443262835602  0.7777778368582199  0.5238095301395711   F   F   F
  0.6671792707196498  0.3345300090960233  0.6192665145263537   T   T   T
  0.6636104052727706  1.0058672786813214  0.6196513504019584   T   T   T
  0.5570596005436899  0.2222952366075838  0.5718268426527802   T   T   T
  0.5589235659095446  0.8854682860435861  0.5721429247753096   T   T   T
  0.1111111701915534  0.4444443262835603  0.5238095301395711   F   F   F
  0.7777778368582202  0.4444443262835603  0.5238095301395711   F   F   F
  0.6646531742794959  0.6712721509188264  0.6206546878683993   T   T   T
  0.6527750334582275  0.6600009622848748  0.6637698238846429   T   T   T
