Pd  C  O 
 1.0000000000000000
     8.2582115393440390    0.0000000000000000    0.0000000000000006
    -4.1291057696720213    7.1518209828977302    0.0000000000000006
     0.0000000000000000    0.0000000000000000   40.4568089187138042
 Pd  C   O  
  36   9   9
Selective dynamics
Direct
  0.0000003242213467  0.0000001621106736  0.4166666666666669   F   F   F
  0.0000003242213467  0.3333334954440070  0.4166666666666669   F   F   F
  0.0000003242213466  0.6666668287773403  0.4166666666666669   F   F   F
  0.3333336575546800  0.0000001621106736  0.4166666666666669   F   F   F
  0.3333336575546800  0.3333334954440070  0.4166666666666669   F   F   F
  0.3333336575546799  0.6666668287773403  0.4166666666666669   F   F   F
  0.6666669908880133  0.0000001621106736  0.4166666666666669   F   F   F
  0.6666669908880132  0.3333334954440070  0.4166666666666669   F   F   F
  0.6666669908880132  0.6666668287773403  0.4166666666666669   F   F   F
  0.1111114353324573  0.2222223843328956  0.4722222222222223   F   F   F
  0.1111114353324573  0.5555557176662289  0.4722222222222223   F   F   F
  0.1111114353324574  0.8888890509995623  0.4722222222222223   F   F   F
  0.4444447686657906  0.2222223843328956  0.4722222222222223   F   F   F
  0.4444447686657906  0.5555557176662289  0.4722222222222223   F   F   F
  0.4444447686657906  0.8888890509995623  0.4722222222222223   F   F   F
  0.7777781019991239  0.2222223843328956  0.4722222222222223   F   F   F
  0.7777781019991239  0.5555557176662289  0.4722222222222223   F   F   F
  0.7777781019991239  0.8888890509995623  0.4722222222222223   F   F   F
  0.2222098052375312  0.1111160669563838  0.5286136751206498   T   T   T
  0.2222290250685542  0.4444471632319896  0.5286165729924555   T   T   T
  0.2222099823774052  0.7777601184429036  0.5286136452776882   T   T   T
  0.5555652921756631  0.1111154865864207  0.5286136452546922   T   T   T
  0.5555224632685224  0.4443858458189437  0.5285647446865768   T   T   T
  0.5555226035339568  0.7778020363722589  0.5285646479913694   T   T   T
  0.8888778760766148  0.1110960480402620  0.5286165445399680   T   T   T
  0.8888779707423363  0.4444470076508234  0.5286165667080227   T   T   T
  0.8889389239044542  0.7778021678013755  0.5285646763977406   T   T   T
 -0.0000077969706702 -0.0000070046266526  0.5859687201738245   T   T   T
 -0.0000009015223218  0.3333311803258590  0.5859370524751458   T   T   T
 -0.0000076162977714  0.6666633699148770  0.5859686808068386   T   T   T
  0.3333318744216048 -0.0000011418343094  0.5859297629478945   T   T   T
  0.3333370372533809  0.3333379282835044  0.5859690844531932   T   T   T
  0.3333366077597233  0.6666641544129276  0.5859687078558137   T   T   T
  0.6666660891105114 -0.0000069378061168  0.5859686762763333   T   T   T
  0.6666669150136939  0.3333377104817888  0.5859688223647208   T   T   T
  0.6666649457059423  0.6666647168997749  0.5857508588106229   T   T   T
  0.6666718267342115  0.6666709533010623  0.6322527751305611   T   T   T
  0.0001130502082147  0.6666832197816758  0.6324758248805363   T   T   T
  0.3333390437402902  0.0000075139856066  0.6324266230080909   T   T   T
  0.0000039456493890  0.3333364230717182  0.6324330408472149   T   T   T
  0.3332421354196656  0.3332320769191321  0.6324762660023580   T   T   T
  0.6666608912223358  0.3332304835844450  0.6324760083538123   T   T   T
  0.0001120937057745  0.0000997280343497  0.6324758214739108   T   T   T
  0.3332410640838401  0.6666832649464375  0.6324758782446851   T   T   T
  0.6666585357652488  0.0000982487784467  0.6324758372209685   T   T   T
  0.6666724805145086  0.6666708944887413  0.6608048730053285   T   T   T
  0.0001054877463459  0.6666947191676406  0.6610227027516562   T   T   T
  0.3333396600516048  0.0000072367060062  0.6609742480008380   T   T   T
  0.0000032760024840  0.3333362282934335  0.6609806627914594   T   T   T
  0.3332570320095966  0.3332369035453472  0.6610231672276541   T   T   T
  0.6666490322191766  0.3332361673624014  0.6610228499406708   T   T   T
  0.0001065142916559  0.0000831250780483  0.6610227107409359   T   T   T
  0.3332577875193666  0.6666916428517675  0.6610227547465536   T   T   T
  0.6666491054408024  0.0000785854700146  0.6610226853068588   T   T   T
