Pd  C  O 
 1.0000000000000000
     8.2582115393440390    0.0000000000000000    0.0000000000000006
    -4.1291057696720213    7.1518209828977302    0.0000000000000006
     0.0000000000000000    0.0000000000000000   40.4568089187138042
 Pd  C   O  
  36   9   9
Selective dynamics
Direct
  0.0000003242213467  0.0000001621106736  0.4166666666666669   F   F   F
  0.0000003242213467  0.3333334954440070  0.4166666666666669   F   F   F
  0.0000003242213466  0.6666668287773403  0.4166666666666669   F   F   F
  0.3333336575546800  0.0000001621106736  0.4166666666666669   F   F   F
  0.3333336575546800  0.3333334954440070  0.4166666666666669   F   F   F
  0.3333336575546799  0.6666668287773403  0.4166666666666669   F   F   F
  0.6666669908880133  0.0000001621106736  0.4166666666666669   F   F   F
  0.6666669908880132  0.3333334954440070  0.4166666666666669   F   F   F
  0.6666669908880132  0.6666668287773403  0.4166666666666669   F   F   F
  0.1111114353324573  0.2222223843328956  0.4722222222222223   F   F   F
  0.1111114353324573  0.5555557176662289  0.4722222222222223   F   F   F
  0.1111114353324574  0.8888890509995623  0.4722222222222223   F   F   F
  0.4444447686657906  0.2222223843328956  0.4722222222222223   F   F   F
  0.4444447686657906  0.5555557176662289  0.4722222222222223   F   F   F
  0.4444447686657906  0.8888890509995623  0.4722222222222223   F   F   F
  0.7777781019991239  0.2222223843328956  0.4722222222222223   F   F   F
  0.7777781019991239  0.5555557176662289  0.4722222222222223   F   F   F
  0.7777781019991239  0.8888890509995623  0.4722222222222223   F   F   F
  0.2222096745982347  0.1111162180774550  0.5286262566496029   T   T   T
  0.2222303456118567  0.4444479222088138  0.5286292532067816   T   T   T
  0.2222096769056105  0.7777596605551016  0.5286261908347700   T   T   T
  0.5555659536147235  0.1111158830138368  0.5286261594213978   T   T   T
  0.5555257809044896  0.4443918418545602  0.5285759924898956   T   T   T
  0.5555257286341168  0.7777991722457055  0.5285759034011608   T   T   T
  0.8888770274028840  0.1110946753656811  0.5286291957797919   T   T   T
  0.8888771384199790  0.4444477046339314  0.5286291690469852   T   T   T
  0.8889329019910642  0.7777989620675733  0.5285759278908466   T   T   T
 -0.0000082063311552 -0.0000074002128878  0.5859848532097253   T   T   T
 -0.0000009221452639  0.3333312281503264  0.5859526430732995   T   T   T
 -0.0000080428501482  0.6666633282508516  0.5859848041092309   T   T   T
  0.3333319296811140 -0.0000010791528540  0.5859451213237182   T   T   T
  0.3333374869447033  0.3333383600153765  0.5859852265718511   T   T   T
  0.3333369849014059  0.6666641936293060  0.5859848513472503   T   T   T
  0.6666661773526745 -0.0000072320172060  0.5859848172931690   T   T   T
  0.6666670496016693  0.3333381942763796  0.5859849532134255   T   T   T
  0.6666650497476746  0.6666647518898658  0.5857575450399162   T   T   T
  0.6666718150378469  0.6666709199780944  0.6322530919278282   T   T   T
  0.0001179268144618  0.6666824816745369  0.6324719440998883   T   T   T
  0.3333390374301669  0.0000075236696768  0.6324224657135992   T   T   T
  0.0000038660688752  0.3333363629072826  0.6324287612048375   T   T   T
  0.3332365651362853  0.3332271624235232  0.6324724126982258   T   T   T
  0.6666615795827106  0.3332255437481114  0.6324720941570813   T   T   T
  0.0001169170307884  0.0001052005099885  0.6324719578174364   T   T   T
  0.3332354469905910  0.6666826234175444  0.6324720056397188   T   T   T
  0.6666591134336709  0.0001037902527246  0.6324719336591627   T   T   T
  0.6666724559096922  0.6666708748082433  0.6608087385645803   T   T   T
  0.0001094058495367  0.6666960470089505  0.6610266175615922   T   T   T
  0.3333396485669928  0.0000072507253778  0.6609780955447008   T   T   T
  0.0000032246387906  0.3333361856352189  0.6609843157397007   T   T   T
  0.3332543257498769  0.3332329096180520  0.6610270946038684   T   T   T
  0.6666476778798940  0.3332321638774325  0.6610267858731670   T   T   T
  0.0001104286744386  0.0000857042093850  0.6610266360879444   T   T   T
  0.3332551181752202  0.6666929223099348  0.6610266833731706   T   T   T
  0.6666477586302265  0.0000811417352996  0.6610266267167860   T   T   T
