Ag Pd 
 1.0000000000000000
     8.3348369443761747    0.0000000000000000    0.0000000000000005
     4.1674184721880891    7.2181805302308319    0.0000000000000005
     0.0000000000000000    0.0000000000000000   47.6375610737127033
 Ag  Pd 
   9  27
Selective dynamics
Direct
  0.6666666666666667  0.6666666666666667  0.4761904572003339   F   F   F
  0.4444444444444448  0.4444444444444445  0.5238095048193816   F   F   F
  0.4444444444444446  1.1111111111111112  0.5238095048193816   F   F   F
  0.9990024875005425  0.6675394205802581  0.6223115349947337   T   T   T
  0.3348186698659972  0.6678903710025715  0.6225124061107429   T   T   T
  0.2229759863303306  0.2221156130650450  0.5718086832100089   T   T   T
  0.2247207014517293  0.8857981522104982  0.5724360564295176   T   T   T
  0.8887454965723750  0.2224847687834721  0.5716999258966374   T   T   T
  0.8896942573169629  0.8871764519170847  0.5723095078600177   T   T   T
  0.3333333924137755  0.3333333924137756  0.4761904825205235   F   F   F
  0.3333333924137756  1.0000000590804423  0.4761904825205235   F   F   F
  1.0000000590804421  0.3333333924137756  0.4761904825205235   F   F   F
  1.0000000590804421  1.0000000590804423  0.4761904825205235   F   F   F
  0.6666665485057828  0.3333333924137756  0.4761904825205235   F   F   F
  0.6666665485057829  1.0000000590804423  0.4761904825205235   F   F   F
  0.3333333924137759  0.6666665485057824  0.4761904825205235   F   F   F
  1.0000000590804428  0.6666665485057824  0.4761904825205235   F   F   F
  0.5562880538444871  0.5547091835812769  0.5716693933801282   T   T   T
  0.1111111701915532  0.1111111701915532  0.5238095301395711   F   F   F
  0.1111111701915533  0.7777778368582199  0.5238095301395711   F   F   F
  0.7777778368582201  0.1111111701915532  0.5238095301395711   F   F   F
  0.7777778368582201  0.7777778368582199  0.5238095301395711   F   F   F
  0.3359171302091822  0.3315243877295054  0.6196016846798738   T   T   T
  0.3345864317038835  1.0030457364669292  0.6203475153345136   T   T   T
  1.0000954992032665  0.3335534355245387  0.6200421137345281   T   T   T
  0.9979522643592736  1.0063132397560508  0.6208350452817287   T   T   T
  0.2229968522087185  0.5540881289011957  0.5720407206304402   T   T   T
  0.8894598708772985  0.5556185652578961  0.5713129359464073   T   T   T
  0.4444443262835602  0.7777778368582199  0.5238095301395711   F   F   F
  0.6678395683560509  0.3336080734701267  0.6197620580393081   T   T   T
  0.6640086267597956  1.0028528050704824  0.6199802735722526   T   T   T
  0.5569098312989758  0.2222249849293995  0.5719098588024204   T   T   T
  0.5578447883373633  0.8867196825559993  0.5717272866233124   T   T   T
  0.1111111701915534  0.4444443262835603  0.5238095301395711   F   F   F
  0.7777778368582202  0.4444443262835603  0.5238095301395711   F   F   F
  0.6674008865390187  0.6676235833231263  0.6188353854884060   T   T   T
