Ag Pd  C  O 
 1.0000000000000000
     8.5013114179517117    0.0000000000000000    0.0000000000000005
     4.2506557089758541    7.3623516534288900    0.0000000000000005
     0.0000000000000000    0.0000000000000000   48.5890419431158733
 Ag  Pd  C   O  
  26  10   1   1
Selective dynamics
Direct
  0.6666666666666671  0.6666666666666666  0.4761904911784334   F   F   F
  0.3333332867041333  0.3333332867041335  0.4761904711944905   F   F   F
  0.3333332867041333  0.9999999533708002  0.4761904711944905   F   F   F
  0.9999999533707997  0.3333332867041335  0.4761904711944905   F   F   F
  0.9999999533707999  0.9999999533708002  0.4761904711944905   F   F   F
  0.6666667599250664  0.3333332867041335  0.4761904711944905   F   F   F
  0.6666667599250664  0.9999999533708002  0.4761904711944905   F   F   F
  0.4444444444444445  0.4444444444444445  0.5238095387974809   F   F   F
  0.6648436259051915  0.6715254496465245  0.6205492879995197   T   T   T
  0.2240473017006551  0.2213592929774089  0.5712101930530206   T   T   T
  0.2221535559024675  0.8903836948715010  0.5715268771026543   T   T   T
  0.8876178972535864  0.2219156182445264  0.5711395066884487   T   T   T
  0.8855892180468015  0.8916209957068651  0.5713776467433840   T   T   T
  0.5570508949068488  0.5557599579805719  0.5716570035714051   T   T   T
  0.1111110644819112  0.7777777311485777  0.5238095188135381   F   F   F
  0.7777777311485781  0.7777777311485777  0.5238095188135381   F   F   F
  0.3318060001434311  0.3374996358237907  0.6201282520945015   T   T   T
  0.3302616636234362  1.0016193907674258  0.6199824590882435   T   T   T
  1.0004702312048230  0.3347740495700924  0.6203767388222806   T   T   T
  1.0013304237892715  0.9976191326102882  0.6213813805550225   T   T   T
  0.2230816579198489  0.5532657137579458  0.5712169417995614   T   T   T
  0.8872978333286677  0.5559052750295959  0.5714158579224691   T   T   T
  0.4444445377028442  0.1111110644819113  0.5238095188135381   F   F   F
  0.4444445377028442  0.7777777311485780  0.5238095188135381   F   F   F
  0.6649319767238424  0.3334689629764773  0.6197623173824015   T   T   T
  0.6672574610723181  1.0020220648207550  0.6194832630884569   T   T   T
  0.3333332867041338  0.6666667599250664  0.4761904711944905   F   F   F
  0.9999999533708005  0.6666667599250664  0.4761904711944905   F   F   F
  0.5559391720005590  0.2213636203849370  0.5715619631736953   T   T   T
  0.5557740322064049  0.8880234534963417  0.5720603813709828   T   T   T
  0.1111110644819112  0.4444445377028443  0.5238095188135381   F   F   F
  0.1111110644819112  1.1111112043695111  0.5238095188135381   F   F   F
  0.7777777311485784  0.4444445377028443  0.5238095188135381   F   F   F
  0.7777777311485777  1.1111112043695111  0.5238095188135381   F   F   F
  0.3287703622161063  0.6683937203464276  0.6179109128351408   T   T   T
  1.0023919137352022  0.6677245202874817  0.6178179162679860   T   T   T
  0.6623331395800929  0.6630185143241982  0.6639787892869916   T   T   T
  0.6694119339121194  0.6657411922626787  0.6874651330727443   T   T   T
