Ag Pd  C  O 
 1.0000000000000000
     8.5013114179517117    0.0000000000000000    0.0000000000000005
     4.2506557089758541    7.3623516534288900    0.0000000000000005
     0.0000000000000000    0.0000000000000000   48.5890419431158733
 Ag  Pd  C   O  
  26  10   1   1
Selective dynamics
Direct
  0.6666666666666671  0.6666666666666666  0.4761904911784334   F   F   F
  0.3333332867041333  0.3333332867041335  0.4761904711944905   F   F   F
  0.3333332867041333  0.9999999533708002  0.4761904711944905   F   F   F
  0.9999999533707997  0.3333332867041335  0.4761904711944905   F   F   F
  0.9999999533707999  0.9999999533708002  0.4761904711944905   F   F   F
  0.6666667599250664  0.3333332867041335  0.4761904711944905   F   F   F
  0.6666667599250664  0.9999999533708002  0.4761904711944905   F   F   F
  0.4444444444444445  0.4444444444444445  0.5238095387974809   F   F   F
  0.6684921774894163  0.6676161181938810  0.6201316373929211   T   T   T
  0.2235054051974482  0.2218449752308779  0.5711099870314650   T   T   T
  0.2232470658635789  0.8881220683000538  0.5718225882093289   T   T   T
  0.8877344679199602  0.2221938454686388  0.5708581108617018   T   T   T
  0.8854084708126246  0.8918822709448533  0.5712742153396184   T   T   T
  0.5546666235172468  0.5565350455330905  0.5718287530275991   T   T   T
  0.1111110644819112  0.7777777311485777  0.5238095188135381   F   F   F
  0.7777777311485781  0.7777777311485777  0.5238095188135381   F   F   F
  0.3320544683605894  0.3345519309065850  0.6199989651565037   T   T   T
  0.3335053097875817  1.0007717527738029  0.6200211554175068   T   T   T
  0.9997733169432759  0.3349895768182087  0.6205785297998447   T   T   T
  0.9992395779197399  0.9988301847121953  0.6205423477363664   T   T   T
  0.2245810408158196  0.5548919744322424  0.5716643572358745   T   T   T
  0.8882116208363877  0.5554989810084826  0.5710954492777743   T   T   T
  0.4444445377028442  0.1111110644819113  0.5238095188135381   F   F   F
  0.4444445377028442  0.7777777311485780  0.5238095188135381   F   F   F
  0.6675541190873181  0.3316908920990293  0.6199060384873444   T   T   T
  0.6670976623255956  0.9991086080259933  0.6195988262560430   T   T   T
  0.3333332867041338  0.6666667599250664  0.4761904711944905   F   F   F
  0.9999999533708005  0.6666667599250664  0.4761904711944905   F   F   F
  0.5560111310827078  0.2221642430965228  0.5715902087244868   T   T   T
  0.5544022276174843  0.8890966942682230  0.5717429886372605   T   T   T
  0.1111110644819112  0.4444445377028443  0.5238095188135381   F   F   F
  0.1111110644819112  1.1111112043695111  0.5238095188135381   F   F   F
  0.7777777311485784  0.4444445377028443  0.5238095188135381   F   F   F
  0.7777777311485777  1.1111112043695111  0.5238095188135381   F   F   F
  0.3318628497464553  0.6670479289266865  0.6214099120732034   T   T   T
  0.9985391517188001  0.6668529465773022  0.6179276585700151   T   T   T
  0.3341312864768056  0.6654000536815277  0.6599658118500574   T   T   T
  0.3325719992565822  0.6669235526028632  0.6839517762166588   T   T   T
