Ag Pd  C  O 
 1.0000000000000000
     8.5013114179517117    0.0000000000000000    0.0000000000000005
     4.2506557089758541    7.3623516534288900    0.0000000000000005
     0.0000000000000000    0.0000000000000000   48.5890419431158733
 Ag  Pd  C   O  
  26  10   1   1
Selective dynamics
Direct
  0.6666666666666671  0.6666666666666666  0.4761904911784334   F   F   F
  0.3333332867041333  0.3333332867041335  0.4761904711944905   F   F   F
  0.3333332867041333  0.9999999533708002  0.4761904711944905   F   F   F
  0.9999999533707997  0.3333332867041335  0.4761904711944905   F   F   F
  0.9999999533707999  0.9999999533708002  0.4761904711944905   F   F   F
  0.6666667599250664  0.3333332867041335  0.4761904711944905   F   F   F
  0.6666667599250664  0.9999999533708002  0.4761904711944905   F   F   F
  0.4444444444444445  0.4444444444444445  0.5238095387974809   F   F   F
  0.6684111359320238  0.6675342939516425  0.6200547464603395   T   T   T
  0.2235336909537314  0.2217877206654706  0.5711219735837363   T   T   T
  0.2234796055295325  0.8877736852197577  0.5718694033715883   T   T   T
  0.8876884330575793  0.2221972645683997  0.5708773545091950   T   T   T
  0.8853878021308706  0.8918286597923405  0.5713091086620022   T   T   T
  0.5543962585233343  0.5566406034823808  0.5718799754443110   T   T   T
  0.1111110644819112  0.7777777311485777  0.5238095188135381   F   F   F
  0.7777777311485781  0.7777777311485777  0.5238095188135381   F   F   F
  0.3321285793995923  0.3347679918258591  0.6199261878729463   T   T   T
  0.3334947431700042  1.0004709447777127  0.6199245747837504   T   T   T
  0.9997111171457088  0.3349497387554334  0.6205006989262378   T   T   T
  0.9996014575511448  0.9986533139566547  0.6204512308398827   T   T   T
  0.2246546920904027  0.5551241076754684  0.5717781391567034   T   T   T
  0.8882932733723646  0.5555735048964704  0.5711413216159810   T   T   T
  0.4444445377028442  0.1111110644819113  0.5238095188135381   F   F   F
  0.4444445377028442  0.7777777311485780  0.5238095188135381   F   F   F
  0.6673879469239649  0.3319667342267806  0.6198150321630309   T   T   T
  0.6671696613681256  0.9989932414228943  0.6194964785008851   T   T   T
  0.3333332867041338  0.6666667599250664  0.4761904711944905   F   F   F
  0.9999999533708005  0.6666667599250664  0.4761904711944905   F   F   F
  0.5560512034451739  0.2220425739235011  0.5716107996781278   T   T   T
  0.5544241011661780  0.8891726957405333  0.5717528343059416   T   T   T
  0.1111110644819112  0.4444445377028443  0.5238095188135381   F   F   F
  0.1111110644819112  1.1111112043695111  0.5238095188135381   F   F   F
  0.7777777311485783  0.4444445377028443  0.5238095188135381   F   F   F
  0.7777777311485777  1.1111112043695111  0.5238095188135381   F   F   F
  0.3318617253758970  0.6671166884421380  0.6212934774317712   T   T   T
  0.9987091178981021  0.6667314832002743  0.6177445250828126   T   T   T
  0.3340589276440852  0.6654820643754491  0.6601217442719817   T   T   T
  0.3325597900956435  0.6669499848271406  0.6839510809838841   T   T   T
