Ag  C  O 
 1.0000000000000000
     8.5983832630900725    0.0000000000000000    0.3096632092506426
     4.2936155075093092    7.4496349315025547    0.3096632092506426
     0.0000000000000000    0.0000000000000000   39.8433329235828140
 Ag  C   O  
  36   1   1
Selective dynamics
Direct
  0.1568057918536281  0.1568082421373165  0.5892169279995214   T   T   T
  0.1549906490774668  0.4900608334125279  0.5886735151796968   T   T   T
  0.1548784840034754  0.8256764576275577  0.5886391833400356   T   T   T
  0.4900622972485459  0.1549909975747978  0.5886737866158044   T   T   T
  0.4900964799897265  0.4900934071616247  0.5899253321340606   T   T   T
  0.4900882721059683  0.8257878349912687  0.5885921526794696   T   T   T
  0.8256741888092256  0.1548807931247344  0.5886397217389050   T   T   T
  0.8257872053151891  0.4900869231600144  0.5885923691733739   T   T   T
  0.8235269281108043  0.8235282821890029  0.5889112303807110   T   T   T
  0.2744655104870725  0.2744653941176660  0.5293349046071016   T   T   T
  0.2760152986715450  0.6070765243249449  0.5297363606380747   T   T   T
  0.2744485825738935  0.9413711149445366  0.5293170883683190   T   T   T
  0.6070769175327981  0.2760148904062656  0.5297365110721941   T   T   T
  0.6071287822081699  0.6071286893849218  0.5296954400135121   T   T   T
  0.6083762445238607  0.9410831618087631  0.5289898604188936   T   T   T
  0.9413706355813191  0.2744485996764385  0.5293172428875803   T   T   T
  0.9410826881054793  0.6083760777912122  0.5289898194656854   T   T   T
  0.9410274877655669  0.9410281573864323  0.5289890507253899   T   T   T
  0.0588233949072055  0.0588233949072054  0.4705882352941176   F   F   F
  0.0588233949072055  0.3921567282405387  0.4705882352941173   F   F   F
  0.0588233949072055  0.7254900615738720  0.4705882352941176   F   F   F
  0.3921567282405388  0.0588233949072054  0.4705882352941176   F   F   F
  0.3921567282405387  0.3921567282405387  0.4705882352941176   F   F   F
  0.3921567282405388  0.7254900615738720  0.4705882352941173   F   F   F
  0.7254900615738720  0.0588233949072054  0.4705882352941176   F   F   F
  0.7254900615738721  0.3921567282405387  0.4705882352941173   F   F   F
  0.7254900615738720  0.7254900615738720  0.4705882352941176   F   F   F
  0.1764704537307346  0.1764704537307344  0.4117647058823530   F   F   F
  0.1764704537307346  0.5098037870640678  0.4117647058823530   F   F   F
  0.1764704537307346  0.8431371203974013  0.4117647058823529   F   F   F
  0.5098037870640679  0.1764704537307344  0.4117647058823530   F   F   F
  0.5098037870640678  0.5098037870640678  0.4117647058823530   F   F   F
  0.5098037870640678  0.8431371203974013  0.4117647058823530   F   F   F
  0.8431371203974012  0.1764704537307344  0.4117647058823530   F   F   F
  0.8431371203974014  0.5098037870640678  0.4117647058823530   F   F   F
  0.8431371203974007  0.8431371203974013  0.4117647058823529   F   F   F
  0.4871456682467827  0.4871367610558771  0.6437118524194095   T   T   T
  0.4874823132107053  0.4874706880631751  0.6723572481638639   T   T   T
