Ag  C  O 
 1.0000000000000000
     8.5983832630900725    0.0000000000000000    0.3096632092506426
     4.2936155075093092    7.4496349315025547    0.3096632092506426
     0.0000000000000000    0.0000000000000000   39.8433329235828140
 Ag  C   O  
  36   1   1
Selective dynamics
Direct
  0.1568057009559574  0.1568083279519562  0.5892122056930259   T   T   T
  0.1549895917773387  0.4900615656273998  0.5886677512844937   T   T   T
  0.1548771248474587  0.8256787335199975  0.5886333108168621   T   T   T
  0.4900631670029176  0.1549899599022088  0.5886680258435366   T   T   T
  0.4900986927248639  0.4900953431001487  0.5899122300535459   T   T   T
  0.4900892257883659  0.8257902847048890  0.5885860880220423   T   T   T
  0.8256763078645513  0.1548796100787999  0.5886338564367003   T   T   T
  0.8257896545953186  0.4900877243290373  0.5885863071330775   T   T   T
  0.8235271003252755  0.8235285589254319  0.5889054543347305   T   T   T
  0.2744658389976954  0.2744657380983046  0.5293296965760885   T   T   T
  0.2760117316530659  0.6070792481940734  0.5297298362577464   T   T   T
  0.2744488225619289  0.9413715031097127  0.5293119142285708   T   T   T
  0.6070796615109360  0.2760113047446561  0.5297300004468432   T   T   T
  0.6071317472705958  0.6071316312958374  0.5296889259226506   T   T   T
  0.6083771140733213  0.9410839337275452  0.5289840709852800   T   T   T
  0.9413710107619919  0.2744488517540362  0.5293120779478382   T   T   T
  0.9410834507223625  0.6083769237462189  0.5289840234985567   T   T   T
  0.9410277972278376  0.9410284883804965  0.5289831915680815   T   T   T
  0.0588233949072055  0.0588233949072054  0.4705882352941176   F   F   F
  0.0588233949072055  0.3921567282405387  0.4705882352941173   F   F   F
  0.0588233949072055  0.7254900615738720  0.4705882352941176   F   F   F
  0.3921567282405388  0.0588233949072054  0.4705882352941176   F   F   F
  0.3921567282405387  0.3921567282405387  0.4705882352941176   F   F   F
  0.3921567282405388  0.7254900615738720  0.4705882352941173   F   F   F
  0.7254900615738720  0.0588233949072054  0.4705882352941176   F   F   F
  0.7254900615738721  0.3921567282405387  0.4705882352941173   F   F   F
  0.7254900615738720  0.7254900615738720  0.4705882352941176   F   F   F
  0.1764704537307346  0.1764704537307344  0.4117647058823530   F   F   F
  0.1764704537307346  0.5098037870640678  0.4117647058823530   F   F   F
  0.1764704537307346  0.8431371203974013  0.4117647058823529   F   F   F
  0.5098037870640679  0.1764704537307344  0.4117647058823530   F   F   F
  0.5098037870640678  0.5098037870640678  0.4117647058823530   F   F   F
  0.5098037870640678  0.8431371203974013  0.4117647058823530   F   F   F
  0.8431371203974012  0.1764704537307344  0.4117647058823530   F   F   F
  0.8431371203974014  0.5098037870640678  0.4117647058823530   F   F   F
  0.8431371203974007  0.8431371203974013  0.4117647058823529   F   F   F
  0.4871526129504277  0.4871436316077947  0.6437036139032678   T   T   T
  0.4874829900381755  0.4874713826089405  0.6723473830720073   T   T   T
